ITEM: TIMESTEP
6000
ITEM: NUMBER OF ATOMS
2532
ITEM: BOX BOUNDS pp pp pp
0.0000000000000000e+00 3.0000000000000000e+01
0.0000000000000000e+00 1.0000000000000000e+01
0.0000000000000000e+00 1.0000000000000000e+01
ITEM: ATOMS id type x y z
4 1 0.920956 0.2429 0.581955
7 1 2.20157 1.08536 1.36107
8 1 1.96332 0.705689 0.490619
403 1 4.20049 1.27516 0.912194
640 1 3.17228 0.495239 0.894141
376 1 4.29265 0.12474 0.817608
461 1 5.32725 0.130897 0.796728
404 1 5.13263 1.26594 0.804713
375 1 4.75573 0.539834 0.0877421
944 1 6.53355 0.177301 0.546187
705 1 6.65056 1.17028 0.91475
706 1 7.41049 0.588236 1.15481
949 1 7.48803 1.38005 0.185131
943 1 7.36774 0.319626 0.0566959
720 1 8.37566 0.858413 0.495818
719 1 9.20901 0.380639 0.413144
1039 1 9.71977 1.21452 0.0113553
1040 1 10.6684 1.3078 0.152929
890 1 10.1557 0.805425 0.996683
1209 1 11.5877 0.223273 0.172211
974 1 12.1223 1.08437 0.464356
662 1 11.6714 0.531578 1.36851
973 1 12.0882 1.39865 1.36273
965 1 13.4331 0.341111 0.593619
1029 1 13.0945 1.25196 0.879213
1289 1 14.1108 0.969232 1.39705
1356 1 14.3765 0.550444 0.21903
1211 1 15.1606 0.0470112 1.07713
1282 1 15.8071 0.944705 0.591157
1543 1 17.1795 1.07749 0.298736
1298 1 17.6942 1.26793 1.25001
1617 1 18.2294 0.695245 0.652348
1544 1 17.3298 0.135003 0.517862
1843 1 19.2481 0.131842 0.146407
1613 1 19.2863 0.424957 1.14334
1614 1 19.3744 1.3405 1.10314
2065 1 20.2731 0.52403 0.70875
2066 1 21.1492 0.060446 0.685784
1675 1 21.0073 1.12348 0.241233
1916 1 22.3268 0.248764 0.704744
1612 1 21.5258 1.24052 1.23739
2009 1 23.2435 1.06201 0.404799
2236 1 23.954 0.549306 1.01166
2235 1 24.5784 1.31382 0.935537
1988 1 25.4645 0.867309 0.714828
1987 1 26.396 0.670564 0.980175
1936 1 26.8386 1.06345 0.13813
2496 1 27.6538 0.697139 0.649448
2495 1 28.2165 0.087288 1.22455
2246 1 29.4209 1.21432 0.5292
2245 1 28.7313 1.38801 1.17267
2265 1 29.1713 0.211125 0.558599
91 1 0.677452 2.08088 0.203827
12 1 2.13241 1.56499 0.0161746
14 1 1.51265 1.6919 1.06149
13 1 1.9455 2.55602 1.03936
477 1 2.52898 2.60166 0.228985
96 1 3.0963 2.51444 1.15772
330 1 4.28556 2.26727 1.14755
95 1 3.01623 1.6308 0.763675
78 1 4.09944 2.03582 0.18992
475 1 5.61278 2.28542 1.07241
466 1 5.09486 2.71118 0.265629
476 1 6.02962 1.92196 0.324387
651 1 6.75267 2.54081 0.796357
718 1 8.3922 2.69388 0.525547
731 1 8.00569 1.65143 1.06639
717 1 9.00554 2.16159 1.06225
733 1 9.68829 2.41101 0.0766313
714 1 8.80169 1.80531 0.0354551
800 1 10.7294 2.71237 0.566941
664 1 10.5827 1.76046 1.19598
969 1 12.5519 2.03461 0.63682
970 1 11.6128 2.089 0.699123
647 1 14.0331 1.9637 0.708412
1281 1 14.9661 1.43631 0.516221
1307 1 16.4236 1.92127 0.176055
1297 1 16.731 1.67253 1.26866
1308 1 15.7959 2.14199 0.877399
1461 1 16.7372 2.64578 0.872427
1387 1 18.5402 1.75157 0.582153
1388 1 17.7213 2.21315 0.784669
1384 1 19.1819 2.607 1.14467
1621 1 20.2336 1.81109 0.629645
1616 1 21.1963 2.48328 0.963709
1703 1 21.6035 1.93275 0.0676201
1704 1 22.2583 1.52837 0.656227
2010 1 23.4776 1.44279 1.22181
1678 1 24.0406 2.34429 0.781885
1934 1 22.9797 2.57725 0.679224
1677 1 24.6691 2.65207 1.37593
2007 1 25.6932 1.96405 0.773718
2023 1 24.8397 2.54431 0.120945
2253 1 26.6679 2.38629 0.324989
2254 1 27.0854 1.7419 0.915388
2248 1 28.0285 2.30889 0.677541
92 1 29.9238 2.65287 0.255721
16 1 29.734 2.04937 1.09815
2244 1 29.0769 2.14596 0.341641
2411 1 0.244093 4.11259 0.0813262
2395 1 1.23603 4.08695 0.110433
2397 1 0.855094 2.98649 0.782189
163 1 2.048 3.43629 0.467741
98 1 2.28779 3.4768 1.42156
415 1 3.13387 3.59927 0.363196
393 1 3.69835 3.37024 1.34097
394 1 4.00185 3.02032 0.445131
329 1 4.71668 3.01666 1.40479
544 1 4.97859 3.66575 0.456172
459 1 5.88878 4.2631 0.553609
417 1 6.01354 3.69308 1.38425
467 1 6.23032 3.32013 0.474768
722 1 7.76249 3.8237 1.35271
797 1 8.40077 4.17101 0.53141
734 1 9.70203 3.01372 0.913534
793 1 8.82163 3.42552 1.05111
859 1 9.54902 4.07696 0.166984
799 1 10.8381 3.65605 0.723116
1057 1 12.2987 3.98508 0.55662
740 1 12.075 3.2064 1.34699
1043 1 13.1929 2.9815 0.797226
1053 1 13.9468 3.59418 1.29111
1062 1 13.0552 4.02084 1.36053
1048 1 13.5244 4.17605 0.423222
1052 1 14.4839 2.91985 0.587162
1065 1 15.1611 4.0065 1.14723
1450 1 15.5747 3.11037 1.01501
1462 1 16.4196 3.24046 0.167882
1776 1 17.0745 3.90972 0.497551
1396 1 18.1561 3.17849 1.04504
1293 1 19.3956 2.93526 0.184696
1708 1 19.5245 3.8151 0.865075
1707 1 20.2984 3.22501 0.878495
1933 1 22.2393 3.04081 0.451279
1762 1 22.8013 4.05269 0.549382
1780 1 21.7067 3.54248 1.27461
2006 1 24.1359 3.35664 0.729943
2024 1 25.5933 2.94088 0.625721
2011 1 25.0174 4.01356 0.550822
2410 1 26.3431 4.07694 0.217528
2346 1 26.5591 3.28713 0.935405
2018 1 26.0311 4.2525 1.20956
2313 1 27.4623 3.20775 0.538457
2409 1 27.261 4.26686 0.480948
2314 1 28.1039 3.58146 0.0623796
2345 1 27.2344 3.69913 1.42654
2318 1 29.2125 4.15804 0.122081
2317 1 29.0215 3.59102 0.834876
2398 1 29.9609 3.08196 1.12394
2331 1 29.9618 4.11784 1.24296
2412 1 0.459472 5.02119 0.213377
88 1 1.168 5.00484 1.06344
164 1 2.38923 4.32138 0.70007
84 1 2.05741 5.4482 0.375957
156 1 3.18929 5.44886 0.549161
155 1 3.41967 4.53338 0.829917
481 1 4.27829 5.46443 0.494057
401 1 5.19831 4.76291 1.38316
628 1 5.46433 5.34849 0.422871
486 1 4.32882 4.36343 0.0722679
721 1 7.05217 4.36766 1.05294
549 1 6.52656 5.31456 1.32039
550 1 6.79408 5.44495 0.429602
460 1 6.69655 4.37391 0.122987
473 1 7.85376 5.06172 0.614133
867 1 8.81944 5.63849 1.21908
796 1 8.83958 5.00849 0.181382
802 1 11.2725 5.64564 0.153316
1186 1 10.6486 5.45414 0.996234
860 1 10.0821 4.80955 0.435317
1200 1 12.77 4.8561 0.349646
1221 1 11.7622 5.11488 0.877931
1114 1 13.7508 5.19446 1.0491
992 1 14.8625 5.05871 0.84774
1438 1 14.5751 4.36308 0.175927
1372 1 16.7503 4.93379 0.202173
991 1 15.8391 4.84353 0.835822
1452 1 16.9453 5.47905 1.1489
1451 1 17.0021 4.50104 1.24466
1519 1 17.5252 5.53356 0.212147
1775 1 17.8977 4.34025 0.840225
1380 1 18.9808 5.45761 0.407008
1698 1 19.8677 4.94739 1.10478
1697 1 20.1973 4.58379 0.330042
1691 1 21.1922 4.3663 1.01585
1692 1 20.906 5.25461 0.961244
2013 1 22.2359 4.60997 1.3061
1767 1 22.4351 5.65108 1.05522
2005 1 23.9314 4.31817 0.622741
2106 1 23.1736 4.99488 1.09733
2104 1 24.1639 4.9951 1.32555
2017 1 25.2275 4.74929 1.32493
2002 1 24.9453 5.19778 0.390779
2422 1 26.0243 5.28155 0.583811
2328 1 28.2547 4.37581 1.17544
2460 1 27.3432 4.76796 1.30669
2392 1 27.6387 5.43861 0.011453
2391 1 28.45 5.18617 0.395345
2332 1 29.6522 4.98197 0.880198
87 1 0.734329 5.82368 1.29223
2403 1 0.294975 6.25072 0.377124
152 1 0.727491 7.1043 0.463328
171 1 1.45994 6.31658 0.580538
175 1 2.46323 5.9852 1.14627
172 1 2.10658 6.90453 0.361562
176 1 3.11285 6.58293 0.666847
482 1 4.3155 6.41751 0.423368
487 1 5.39241 6.8319 0.647182
488 1 5.92981 6.14124 0.956042
563 1 6.75259 6.92434 0.464517
810 1 7.62667 6.48302 0.684725
868 1 8.62172 6.25429 0.482759
863 1 9.57652 5.82942 0.420707
806 1 9.23407 6.89259 1.25132
553 1 9.39222 6.92866 0.272496
864 1 10.2844 6.41686 0.698458
1123 1 10.9808 6.94884 1.16606
955 1 11.2903 6.81208 0.0582548
801 1 11.4613 6.15238 0.997838
956 1 12.2423 6.51864 0.272697
1143 1 13.0816 6.51451 1.1971
1529 1 13.9897 6.93647 0.589073
1113 1 14.1884 6.00367 1.25306
1119 1 14.6376 5.8831 0.0121211
1443 1 15.5128 5.93959 0.794556
1218 1 15.182 6.74932 0.380686
1131 1 14.9245 7.02713 1.33979
1444 1 16.3241 6.46541 0.813372
1371 1 16.5923 5.86896 0.00124241
1442 1 17.3896 6.58232 1.17378
1441 1 18.2333 6.18842 0.775018
1829 1 17.4826 6.76026 0.143723
1777 1 19.7256 6.00229 1.09235
1837 1 19.8659 7.07524 0.451058
1513 1 19.0895 6.46651 0.0283555
1840 1 21.2978 6.03299 1.39866
1839 1 21.2274 6.99659 1.14329
1764 1 20.5162 5.98595 0.39128
1841 1 21.6328 6.61761 0.280728
2105 1 23.4857 5.75111 0.45732
1849 1 23.0952 6.76323 0.870987
2096 1 24.2406 6.13289 1.24361
2181 1 25.0991 6.56426 0.720463
2415 1 27.0737 6.21827 0.676198
2185 1 25.9499 7.11742 0.195422
2186 1 26.1096 6.6477 1.00286
2401 1 28.0156 5.77239 1.30759
2423 1 27.6914 7.02373 0.759855
2493 1 28.1381 6.33246 0.0480876
177 1 28.746 6.61519 0.795408
2473 1 29.4165 5.96864 0.922978
2474 1 29.0977 6.04195 0.0190217
178 1 29.5733 7.01169 0.530682
151 1 1.23231 7.42227 1.2124
2504 1 0.708497 8.15765 0.501593
242 1 1.40601 8.4348 1.16918
246 1 2.21031 7.87342 0.822078
634 1 3.12287 8.44044 0.40536
633 1 3.25422 7.56071 0.898494
257 1 4.44949 7.32871 0.803938
258 1 4.28661 8.05211 1.42412
638 1 5.22064 8.25499 0.513505
398 1 6.03733 7.68084 0.0778177
381 1 6.92645 8.30025 0.176676
564 1 6.61207 7.7201 0.914113
958 1 8.37371 7.2508 0.78813
957 1 7.63955 7.54835 0.148706
657 1 7.81256 8.14066 0.929425
809 1 7.44798 7.24486 1.26196
902 1 9.38805 7.83668 1.09944
894 1 8.90141 8.20901 0.0631655
952 1 10.5179 7.99536 1.23091
1275 1 10.2358 7.80453 0.0537021
1280 1 11.5628 7.71177 0.639793
1279 1 11.5348 8.55893 1.07525
1354 1 13.0256 7.87271 0.737393
1353 1 13.9241 8.23598 0.846515
1217 1 14.8452 7.63317 0.442797
1232 1 14.8636 8.28901 1.33527
1521 1 15.8638 7.5493 1.09577
1598 1 16.7064 7.32776 0.348993
1525 1 16.5638 8.30301 1.06701
1585 1 15.8058 8.04536 0.0344021
1447 1 18.3925 7.37538 0.280266
1448 1 18.1286 7.28777 1.23779
1599 1 18.4719 8.18904 1.34457
1528 1 17.8709 8.25039 0.429111
1600 1 19.1828 8.03571 0.740358
1913 1 20.4451 7.81617 1.14471
1917 1 20.1017 8.20269 0.224061
1838 1 20.7879 7.21415 0.127751
1766 1 21.5587 8.23849 1.09642
1765 1 21.9981 8.43971 0.238578
1850 1 22.9289 7.5513 1.33369
2240 1 23.686 7.52515 0.127256
2159 1 23.6339 8.46204 0.645688
2160 1 24.3421 7.85739 0.870421
2163 1 25.1365 8.06327 0.164002
2315 1 25.8121 7.7836 1.23027
2489 1 26.4783 8.0104 0.590036
2424 1 26.9055 7.28067 1.25758
272 1 27.5958 8.01165 1.03278
267 1 28.394 8.00353 0.214618
319 1 27.2827 8.16594 0.00125054
268 1 28.9945 7.81163 1.03401
2503 1 29.9907 8.10141 1.07359
2417 1 29.55 8.11902 0.159967
240 1 0.0295444 9.88971 1.18265
241 1 0.616462 8.99122 1.05901
248 1 0.59796 9.32714 0.0350132
9 1 2.67531 9.62894 0.502343
245 1 2.29249 8.76394 1.08687
322 1 1.57374 9.50562 0.816347
321 1 1.50656 8.79799 0.215471
10 1 3.23611 9.27855 1.1725
462 1 5.6352 9.23487 0.999502
391 1 4.51619 9.09359 0.360495
573 1 4.35816 9.34205 1.36362
382 1 6.6099 9.09707 0.630609
891 1 7.52048 9.21592 1.06777
658 1 8.38166 8.7878 1.41346
650 1 8.5148 9.63279 0.721287
892 1 7.91869 8.89455 0.220921
649 1 9.22012 9.05264 0.435687
883 1 9.83617 9.77632 1.08981
1210 1 10.9838 9.74091 0.724635
951 1 10.4061 8.88465 0.985688
1203 1 12.8538 8.8191 0.881911
1259 1 12.2477 9.73712 1.0435
1260 1 12.2289 9.42505 0.154397
1271 1 11.435 8.6245 0.00744192
1204 1 13.6089 9.24403 1.33534
1589 1 13.7218 9.25543 0.056152
1347 1 15.3951 9.11101 0.659643
1348 1 14.6712 8.67398 0.188742
1212 1 14.489 9.48554 0.767329
1524 1 16.2902 9.94762 0.353018
1291 1 16.9809 9.61236 1.39138
1527 1 17.628 9.12672 0.184609
1844 1 19.8364 9.46251 0.415508
1545 1 18.7899 9.03922 0.378214
1847 1 19.063 9.44691 1.32229
1918 1 20.8534 8.85554 0.303456
1914 1 20.1014 8.71442 1.07694
2234 1 21.8457 9.29857 1.14887
2233 1 22.6515 9.29973 0.484588
1857 1 22.8493 9.83743 1.3818
1930 1 23.7293 9.44366 0.734098
1942 1 24.9717 9.78643 0.0428837
2164 1 24.5442 8.8288 0.279486
2316 1 25.6192 8.72709 1.06754
2319 1 26.9049 9.95814 0.418349
1927 1 26.7424 9.01372 0.575812
1941 1 25.7296 9.71866 0.666153
271 1 27.9561 8.92926 0.788357
2266 1 28.3567 9.91983 0.162935
239 1 29.7057 9.11098 0.833549
256 1 0.677253 0.461589 1.71929
119 1 0.692168 1.33647 2.10438
120 1 1.65467 1.08911 2.29835
19 1 1.63719 0.152515 1.70742
574 1 3.86666 0.120996 1.75447
266 1 3.00238 0.517262 2.35276
399 1 5.07251 0.022669 1.83753
412 1 5.63534 1.03903 2.45162
346 1 4.78366 1.05167 1.83743
400 1 6.00268 0.327812 1.55452
337 1 6.83307 0.927904 2.13348
578 1 6.29756 0.240786 2.61889
646 1 8.37814 0.75802 1.56093
568 1 7.72893 0.417418 2.39268
900 1 8.89918 0.372347 2.55972
741 1 9.74651 0.510295 2.12365
645 1 9.09497 1.37398 1.74889
661 1 11.2296 1.22146 1.84352
889 1 10.6861 0.264101 1.55697
655 1 10.625 0.595053 2.59204
987 1 11.5627 0.356806 2.31974
976 1 12.5403 0.763322 2.00593
967 1 13.9598 0.247218 2.31956
1288 1 14.9345 0.5788 1.92107
1287 1 15.7351 1.1157 1.69485
1555 1 16.5995 0.979613 2.32306
1565 1 16.9095 0.0372189 2.42815
1292 1 16.2858 0.184809 1.56467
1566 1 17.5123 0.33297 1.77033
1607 1 19.5012 0.925596 2.16397
1608 1 18.5772 1.19676 1.90442
1626 1 20.119 0.201607 1.65022
1611 1 21.1537 0.922463 2.03528
1622 1 20.3866 1.33507 1.45476
1882 1 20.3518 0.378226 2.76164
1858 1 22.2531 0.425215 1.83858
2172 1 23.2403 0.672362 2.01603
2171 1 23.9396 0.0579653 2.20041
2184 1 23.0404 0.0351176 2.84339
2161 1 24.5508 0.733382 1.80603
2019 1 25.6206 0.227609 1.82656
2020 1 25.3172 0.642289 2.60776
2261 1 26.7391 1.30296 1.82568
2262 1 25.8376 1.19987 1.64496
2271 1 26.9818 0.0946763 2.40039
2272 1 26.1069 0.00578153 2.82375
2333 1 26.4495 0.912318 2.76389
2349 1 27.7528 1.34077 1.5074
2350 1 27.8727 0.80727 2.32609
255 1 29.9035 0.960874 1.52553
288 1 29.1274 0.844677 2.32311
28 1 0.717588 2.27759 1.59888
2260 1 2.74564 1.93367 1.98938
37 1 1.76176 2.1494 2.29709
2259 1 3.58354 1.5885 1.77422
413 1 3.68093 2.52019 2.06969
345 1 5.00283 1.9164 1.80809
411 1 6.01027 1.45514 1.66718
333 1 5.82902 2.57737 2.00075
334 1 6.44261 2.53202 2.68659
652 1 6.93062 2.03835 1.56746
732 1 8.01064 2.50908 1.45081
816 1 7.66289 1.65409 2.32157
815 1 7.5589 2.59965 2.39591
659 1 8.58125 2.70551 2.38286
730 1 9.51525 2.42577 2.63524
779 1 11.3221 2.419 1.68097
729 1 10.1209 2.76779 1.94872
780 1 10.9219 2.05719 2.49991
663 1 10.0718 1.66018 2.01603
739 1 12.4728 2.34683 1.62054
908 1 12.1759 1.74911 2.56733
977 1 11.8135 2.72477 2.60306
648 1 13.7111 2.29062 1.52735
989 1 13.2781 1.77129 2.38104
990 1 14.1743 1.68065 2.75643
1067 1 12.8709 2.66054 2.78263
1050 1 13.8427 2.68953 2.44284
1290 1 14.5906 1.7843 1.5937
972 1 15.1944 1.62897 2.49826
971 1 15.3918 2.5082 2.57939
1299 1 16.2431 2.01048 2.34205
1455 1 16.9414 2.82396 1.92889
1300 1 16.9211 2.4542 2.8246
1556 1 17.3008 1.72161 2.07675
1395 1 18.0818 2.53174 1.77518
1306 1 19.0214 2.03697 2.43005
1632 1 20.0757 1.82315 2.42539
1706 1 21.0513 1.81753 2.84037
1615 1 21.0578 2.18941 1.85152
1303 1 20.2141 2.5058 1.67868
1374 1 22.0381 1.51264 2.46035
1937 1 21.911 2.54602 2.34397
1938 1 22.4181 2.29866 1.5826
1373 1 22.9686 1.63101 2.16871
1629 1 23.4684 2.68971 1.59086
2162 1 24.7661 1.59725 2.08677
1932 1 25.2709 2.48321 2.22109
2015 1 26.2268 2.28299 1.60217
2353 1 26.2023 2.69551 2.62842
2339 1 25.7223 1.73987 2.70988
2016 1 27.1617 2.5193 1.65541
2247 1 28.1531 2.25534 1.67335
2288 1 27.3352 1.83324 2.49099
15 1 29.3841 1.82485 1.96144
2342 1 28.7734 2.69768 2.38978
2341 1 29.0334 2.68766 1.43578
27 1 1.26458 3.02054 1.77535
2432 1 0.346303 4.12203 2.47035
105 1 2.84941 3.24395 2.57503
106 1 2.03378 3.7604 2.64857
97 1 2.97645 4.08098 1.79364
498 1 4.171 3.52458 2.35111
484 1 5.20619 2.86145 2.81131
402 1 5.06841 3.92903 1.806
332 1 5.93869 3.98861 2.85146
418 1 6.69889 3.06652 1.68748
746 1 7.9619 3.45496 2.55044
794 1 9.28042 4.225 1.48268
817 1 8.64201 4.22649 2.80364
660 1 9.29424 3.32744 2.09257
818 1 9.58916 4.25091 2.79504
723 1 10.265 3.76289 2.01794
744 1 10.8908 3.20365 2.57357
725 1 11.3248 3.9834 2.15775
1073 1 12.752 4.2517 2.31106
1049 1 13.997 3.62885 2.53958
1061 1 13.1484 3.21169 1.89971
1054 1 14.6928 3.15454 1.57124
1066 1 15.3353 3.76297 2.06027
1449 1 16.2564 3.55336 1.5012
1375 1 16.2844 3.35666 2.49327
1456 1 17.3345 3.58702 1.54803
1479 1 17.1495 4.16996 2.38489
1399 1 17.9895 3.3812 2.47115
1383 1 19.435 3.16106 1.88119
1459 1 19.4733 4.20347 1.81126
1386 1 19.3994 3.69558 2.83065
1460 1 20.3308 3.97027 1.52364
1304 1 20.5603 3.16225 2.3327
1874 1 22.8043 2.9543 2.74289
1779 1 21.4379 4.06005 2.03875
2034 1 22.8496 3.66407 1.87192
2033 1 22.27 3.84456 2.63007
2098 1 23.8046 3.89063 1.62581
2097 1 23.5822 3.99502 2.54389
1630 1 24.0717 2.94223 2.34681
2021 1 25.5479 3.37393 1.64312
2099 1 24.6989 4.07895 2.01378
2022 1 26.0024 3.94746 2.27196
2336 1 26.9573 3.7785 2.45862
2326 1 28.2827 3.47483 1.59406
2051 1 27.6727 2.96327 2.36274
2325 1 28.2211 3.77369 2.47859
2430 1 29.697 3.25702 2.10432
2429 1 29.1744 4.09648 2.10334
100 1 1.01454 4.86332 2.0894
99 1 0.113052 5.0553 1.86463
165 1 2.2466 4.78766 2.4951
166 1 2.3899 5.09652 1.56432
479 1 3.90828 4.71476 2.75052
507 1 4.12703 4.84461 1.75161
110 1 3.11004 5.41978 2.46289
508 1 4.67971 5.4351 2.25399
422 1 4.83027 4.40318 2.65644
635 1 5.72844 5.38206 2.06831
430 1 6.77553 5.19087 2.3445
636 1 6.02243 4.50836 1.94152
727 1 7.55284 5.34428 1.49929
429 1 7.42656 4.43208 2.22026
728 1 8.37703 4.81638 1.52534
807 1 9.85269 5.06984 1.83127
1136 1 9.13565 5.32158 2.65353
724 1 10.5835 4.45956 1.44588
1185 1 11.1888 5.52715 1.79282
808 1 10.5064 4.78393 2.46627
726 1 11.6572 4.69085 2.59616
1222 1 12.1575 5.13042 1.74404
1197 1 14.025 4.7874 2.65834
1198 1 14.246 4.63925 1.75521
1138 1 12.9105 5.64396 2.71171
1465 1 15.0679 5.27637 1.97055
1471 1 15.9532 5.61809 1.59313
1472 1 16.6357 5.29849 2.20852
1457 1 15.7871 4.85088 2.57642
1533 1 17.866 5.27138 1.52911
1534 1 17.5691 5.09564 2.32576
1470 1 18.5001 5.69335 2.63615
1469 1 19.1203 5.41572 1.9758
1728 1 18.6048 4.50501 2.16625
1711 1 21.1975 4.96777 1.85798
1393 1 20.342 4.72435 2.37239
2014 1 22.8032 4.65904 2.05994
1712 1 21.9892 5.39169 2.16842
2103 1 23.8653 4.99458 2.27503
2110 1 24.9876 5.07327 2.33363
2459 1 27.0628 5.25144 2.03398
2090 1 26.1105 5.709 1.55764
2109 1 25.9459 5.02483 2.48528
2327 1 28.1572 4.78877 2.00624
2402 1 28.8418 5.66518 1.87847
186 1 29.4131 4.84944 2.75852
170 1 0.446583 6.84106 1.47358
2425 1 1.28372 5.88089 2.19853
169 1 0.326898 6.26262 2.23364
2426 1 1.64397 6.53594 1.58181
168 1 2.60714 7.1259 1.6313
263 1 2.1878 6.31648 2.63398
182 1 3.71578 6.8594 1.48345
109 1 2.99161 6.24867 1.96109
181 1 3.98088 5.96206 1.42941
492 1 4.17378 6.50762 2.38708
493 1 5.24641 6.25839 1.73349
494 1 5.17461 6.33738 2.70673
491 1 4.73891 7.12248 1.86754
495 1 6.19721 6.97515 2.63476
496 1 6.43717 6.05525 2.59827
813 1 6.89829 6.3666 1.44735
874 1 8.39054 5.79926 2.14503
814 1 7.48333 6.27319 2.20146
873 1 8.23282 6.68705 1.70406
805 1 9.24085 6.24018 1.97349
862 1 10.3237 6.39933 1.81759
1278 1 11.3185 6.39729 2.14444
861 1 10.2617 6.85383 2.69897
1128 1 12.4379 6.67 2.09479
823 1 11.908 5.91785 2.80719
1144 1 13.2868 5.71637 1.76899
1127 1 13.3941 6.63581 2.33062
1466 1 15.1652 6.2372 1.98734
1215 1 14.391 6.96314 2.62316
1147 1 14.3143 5.82038 2.5954
1141 1 16.0543 6.634 2.12793
1482 1 17.1252 6.18944 2.39312
1772 1 17.4777 7.12908 2.12794
1771 1 18.0694 6.40388 1.8816
1484 1 19.0772 6.54137 1.83565
1770 1 19.7224 6.1308 2.54199
1483 1 18.9217 6.75472 2.76041
1769 1 20.5284 6.65829 2.58744
1778 1 20.3774 5.72443 1.76053
2032 1 22.7151 6.52741 2.44007
1784 1 22.1928 6.67988 1.49354
1783 1 21.6075 6.6957 2.27517
1768 1 23.1426 5.78944 1.74697
2166 1 23.5055 7.11531 2.57695
2165 1 23.9255 7.12452 1.70688
2089 1 25.4939 5.99094 2.26536
2095 1 24.3413 6.14958 2.27711
2420 1 26.2755 6.79771 2.01422
2419 1 27.1251 6.32647 1.82359
188 1 28.3696 6.79513 2.0898
2500 1 27.5612 6.85597 2.78665
2357 1 27.7765 5.84888 2.47712
187 1 29.2245 6.9144 1.66164
208 1 29.3967 5.94375 2.77057
251 1 1.24076 7.43993 2.3262
253 1 0.378139 7.91904 2.78569
259 1 0.570161 8.38162 1.85186
252 1 1.95289 7.86296 1.83792
264 1 2.36488 7.2151 2.64764
167 1 2.95115 7.90955 2.04849
576 1 3.92597 7.63919 2.51216
637 1 5.28549 8.37906 1.55244
489 1 5.69579 7.43778 1.64513
570 1 4.95615 7.66556 2.7745
579 1 6.51172 8.48369 1.48746
580 1 6.91231 7.76988 1.96818
490 1 5.85718 8.02979 2.40018
555 1 8.27314 7.77289 1.7933
820 1 7.62915 7.41368 2.63052
501 1 8.1862 8.20312 2.84542
556 1 8.83201 7.24844 2.44809
880 1 9.73747 7.42849 2.08314
879 1 10.4288 7.9394 2.46058
1124 1 11.2164 7.50741 1.84673
887 1 11.0765 8.50765 2.05441
1202 1 12.185 7.80566 1.67035
1270 1 11.6933 8.00918 2.73772
1151 1 12.7982 8.49689 2.8424
1201 1 13.1228 7.6529 1.85002
1132 1 14.0873 7.41846 1.6066
1126 1 13.9283 8.52296 1.96761
1231 1 14.9842 8.11867 2.28485
1522 1 16.7073 7.25532 1.45197
1360 1 15.9577 7.77347 2.10476
1453 1 16.923 7.91492 2.68
1526 1 17.3924 7.94568 1.49936
1551 1 18.0066 8.39738 2.63522
1532 1 19.8359 7.51811 2.07604
1552 1 18.6044 7.62826 2.33352
1531 1 20.1171 8.39118 2.36172
1854 1 20.9117 7.50701 2.05317
2173 1 21.9888 7.97659 2.10922
2174 1 22.8525 8.12144 2.37399
2170 1 24.1051 8.06693 1.95522
2101 1 25.0497 7.21269 2.81966
2501 1 25.1491 7.2044 1.79242
2502 1 25.0839 8.18134 1.93722
2258 1 26.8993 8.33211 1.88717
2257 1 26.0827 8.00574 2.26868
2510 1 27.7125 7.66906 2.10595
2434 1 27.1453 8.07831 2.84633
254 1 29.9074 7.53968 2.04297
2509 1 28.672 7.86672 2.15584
2356 1 29.0573 7.159 2.79276
22 1 0.889125 9.72847 2.77431
20 1 1.21892 9.37155 1.88158
23 1 2.19759 8.84178 2.02883
265 1 2.59591 9.67443 2.14285
17 1 3.47607 8.83561 2.1617
18 1 3.86009 9.55748 2.61581
572 1 4.61214 8.78957 2.31441
336 1 6.00056 9.36718 2.03357
335 1 6.89853 9.74227 1.8886
326 1 6.74398 8.59875 2.51583
325 1 7.58239 8.68803 2.04683
567 1 8.03049 9.59367 1.96264
884 1 8.98173 9.92013 1.60896
901 1 9.51867 8.70979 1.43334
896 1 9.02418 9.34042 2.54017
888 1 11.308 9.44369 1.73737
885 1 10.2244 9.36276 2.21421
1540 1 11.9799 9.42957 2.46984
1539 1 12.3335 8.86648 1.75207
975 1 12.9954 9.94829 1.86467
1125 1 13.5584 9.2823 2.38484
1318 1 15.0582 9.99504 2.70882
1538 1 14.6154 9.3782 1.89631
1537 1 14.4701 8.97607 2.76528
1359 1 15.7829 8.62181 1.67413
1865 1 17.0765 8.92393 2.29179
1569 1 15.9146 9.40228 2.35867
1866 1 17.8563 9.05658 1.732
1870 1 18.4344 9.85621 2.31479
1869 1 19.4123 9.70788 2.41756
1848 1 19.0217 8.82361 2.006
2179 1 21.1588 8.73298 1.86504
1625 1 20.2011 9.27395 1.91609
1919 1 20.6923 9.23347 2.83298
1920 1 21.2285 9.78858 2.29331
2180 1 21.5184 8.75338 2.73634
2167 1 22.7612 8.66472 1.46355
2168 1 22.2828 9.22441 2.09101
1862 1 22.0909 9.94726 2.83793
2188 1 23.6291 9.16804 1.72444
2178 1 24.0204 8.90311 2.74447
2187 1 24.5596 9.1959 1.57283
1925 1 25.0101 9.44621 2.55262
2263 1 26.5295 9.68558 1.47876
2264 1 25.827 9.25174 2.01905
2506 1 27.0387 9.0279 2.56608
2507 1 27.958 8.71414 2.06484
2508 1 27.465 9.45102 1.65312
289 1 28.2338 9.84596 2.22876
21 1 29.9227 9.85027 2.69796
287 1 29.2403 9.98164 1.86735
260 1 29.97 9.09747 1.91434
2251 1 29.0019 9.02067 2.35863
2252 1 28.9021 8.8266 1.46461
303 1 0.982075 0.267716 3.89476
121 1 1.39836 1.31747 3.90132
304 1 0.637936 0.827289 3.14827
31 1 2.17444 0.253705 3.03805
32 1 2.37037 1.1942 3.05785
342 1 2.53095 0.494387 4.1227
93 1 4.22049 1.19906 3.72889
341 1 3.18369 0.576819 3.42698
29 1 4.56607 0.471837 2.9748
354 1 5.45647 0.951741 3.55825
262 1 4.58357 0.00552742 3.98198
338 1 6.72042 1.34562 3.01311
370 1 6.44763 0.553412 3.50865
369 1 7.08764 1.016 4.06129
339 1 8.57065 1.3073 3.12931
899 1 8.24794 0.0582056 3.13305
616 1 7.88144 0.158308 4.10208
340 1 8.36708 1.28609 4.10378
710 1 9.29625 0.680875 3.7547
742 1 9.81094 0.0220234 2.9461
709 1 9.69575 1.14982 2.9777
656 1 10.4432 0.663857 3.50723
988 1 12.2119 0.459851 2.9655
907 1 11.4349 1.28002 2.93305
904 1 11.4872 0.431324 3.62771
994 1 12.4449 1.33266 3.55019
1205 1 12.5138 0.336653 4.15758
993 1 11.5778 1.34975 4.10603
1536 1 13.3716 0.966904 4.07251
1535 1 13.4347 0.880112 3.14662
968 1 14.4944 0.705743 2.98996
1249 1 15.3573 0.979217 3.5459
1317 1 15.9798 0.261372 2.90557
1000 1 15.8911 0.117684 3.999
1007 1 16.6247 0.967756 3.75746
1313 1 17.6279 0.588973 3.06574
1314 1 18.5465 0.763226 2.87396
1391 1 17.9145 1.09222 4.03455
1562 1 17.4784 0.0406788 4.13092
1310 1 19.902 1.1414 3.45453
1309 1 19.307 0.371735 3.4915
1640 1 19.0915 1.10964 4.21261
1633 1 20.5636 0.238201 3.78036
1718 1 20.8691 1.23693 3.84488
1881 1 21.227 0.68935 3.04392
1877 1 22.6087 0.887485 3.24878
1878 1 21.9145 0.878976 3.94986
2183 1 23.7154 0.508491 3.3245
1956 1 23.859 0.870709 4.27252
2176 1 24.4966 1.25196 3.14684
1960 1 25.4296 0.348306 3.67243
1959 1 24.7329 0.082302 4.20202
2334 1 26.0956 1.07347 3.6724
2273 1 26.6513 0.178336 3.99215
2498 1 27.5677 0.54066 3.32264
2497 1 28.5421 0.78535 3.36822
2267 1 29.667 0.644382 3.41086
2344 1 0.812608 1.97285 3.09244
2343 1 0.802963 2.44141 3.92188
41 1 0.0770663 1.4644 3.91592
445 1 2.46745 1.56167 4.14906
38 1 1.81348 2.33776 3.2481
446 1 2.56844 2.51535 4.25996
102 1 2.85853 2.26163 3.28512
101 1 3.46069 1.61242 3.0875
435 1 3.80589 2.14504 4.05156
414 1 3.91445 2.74345 3.0102
94 1 4.58724 1.51713 2.86877
353 1 5.68254 1.83871 3.2925
409 1 4.79207 2.27673 3.63804
350 1 5.66798 2.57176 4.24806
427 1 6.69732 2.11394 3.99063
344 1 7.64589 1.75163 3.44892
666 1 8.59032 2.28255 3.83686
644 1 9.42084 2.82438 3.91779
351 1 9.70089 1.65748 3.9103
743 1 10.3348 2.80707 3.21036
352 1 10.5859 1.84289 3.56893
978 1 11.5701 2.37816 3.502
1002 1 14.054 2.02039 4.08181
1001 1 13.2497 2.04449 3.56273
985 1 15.0137 2.09739 3.43995
1250 1 14.8678 1.46682 4.27677
986 1 15.9773 2.01975 3.35648
1407 1 17.0613 2.64102 3.93708
1008 1 16.0184 1.58304 4.19183
997 1 15.8681 2.79985 4.27377
979 1 17.3022 1.5653 3.17985
1408 1 17.1717 1.79258 4.25905
980 1 18.0747 2.11452 2.93001
1389 1 18.1682 2.35453 4.01468
1305 1 19.0202 1.97337 3.40695
1631 1 20.0646 2.26931 3.33513
1709 1 21.1243 2.71904 3.77061
1671 1 22.8008 2.22849 3.78829
1705 1 21.745 1.90777 3.5731
1672 1 23.3167 1.70623 3.13759
1620 1 23.7867 2.29969 3.9778
2175 1 24.3046 2.21515 3.03967
1619 1 24.7194 1.98599 3.92094
2340 1 25.5282 2.38062 3.44628
2361 1 26.8551 1.71977 3.65588
2287 1 27.8951 1.68817 3.26581
2052 1 27.2625 2.5408 3.14952
2278 1 28.8877 1.74041 4.00143
2268 1 29.8633 1.56689 2.95058
2277 1 28.8877 1.95101 3.0522
2519 1 29.7481 2.55216 2.90742
2520 1 29.6645 2.50416 3.89699
195 1 0.609521 3.08354 2.99592
2359 1 0.144249 3.6598 4.11311
196 1 0.936549 3.91698 3.42933
25 1 1.58085 3.13187 4.22325
26 1 2.04726 3.71506 3.59038
480 1 3.0263 4.23907 2.94106
497 1 4.03378 3.70744 3.29499
436 1 3.90134 3.11247 4.21511
434 1 3.3724 4.09416 4.06708
433 1 3.00177 3.32219 3.70408
410 1 4.90733 3.18389 3.85235
408 1 5.2887 4.21729 3.67209
407 1 4.48605 4.16241 4.23561
483 1 5.89859 3.10573 3.41717
425 1 6.8301 3.51588 2.92365
347 1 6.57342 4.16656 4.21337
426 1 6.82009 3.15488 3.81891
424 1 7.53087 4.15751 3.22809
745 1 7.9283 3.08949 3.4601
755 1 8.38953 4.15198 3.8173
756 1 7.72132 3.71127 4.26807
643 1 8.91007 3.31918 3.20176
747 1 9.93826 3.80888 3.70418
736 1 11.3891 3.49682 3.63202
1068 1 12.5829 2.91578 3.61036
1074 1 12.1337 3.83667 2.94627
1122 1 13.8863 4.16188 3.60326
1121 1 13.1718 3.76393 3.14961
984 1 13.7674 2.9789 3.74171
1076 1 13.0994 3.78951 4.2052
1077 1 15.2833 3.37636 3.02839
1078 1 14.7141 3.08836 3.75623
1382 1 15.4748 3.85128 4.00584
1376 1 16.2539 3.0622 3.38669
1085 1 16.4451 4.11602 3.72158
1086 1 17.1906 3.61733 3.38748
1419 1 18.2702 4.15423 4.25318
1400 1 18.6253 2.9678 2.94828
1390 1 18.8753 3.10214 4.05272
1385 1 19.5026 4.10481 3.7385
1312 1 20.0735 3.21411 3.85282
1710 1 21.2914 3.32445 3.05595
1798 1 21.0881 4.11737 3.78375
1394 1 20.3649 4.03557 3.05435
1873 1 22.1202 2.89108 3.40875
1797 1 22.0374 3.88569 3.77451
1943 1 23.7608 3.13913 3.32392
1944 1 23.0422 3.78684 3.39956
1628 1 24.251 3.72456 3.98736
1931 1 25.0303 3.1092 2.93025
2100 1 24.7165 4.1756 3.02079
2039 1 25.3647 3.86091 4.12023
2354 1 26.1078 3.20516 3.47184
2124 1 26.562 3.81513 4.23154
2364 1 27.5523 3.41281 3.77695
2363 1 28.2691 3.11874 3.19162
2431 1 29.5577 3.83713 3.02453
199 1 28.703 3.34422 4.0109
185 1 0.288111 5.2921 2.88239
2370 1 0.140908 4.63417 3.81497
103 1 1.4138 4.7646 3.09331
104 1 1.48983 5.70386 3.29721
180 1 2.84313 5.18498 3.39642
111 1 2.31242 4.49933 4.16827
112 1 1.79154 5.28571 4.21917
179 1 3.5824 4.98421 4.00556
421 1 5.37371 5.04855 2.98398
420 1 4.59853 5.63948 3.32448
331 1 6.36658 4.75173 3.23413
442 1 5.9071 5.02074 4.23203
825 1 7.71301 5.35906 2.87517
423 1 7.53266 4.8734 3.90383
826 1 8.27892 5.53156 3.69033
1157 1 9.99894 5.1567 3.30995
1158 1 9.22797 4.65547 3.62565
735 1 10.9396 4.36615 3.43922
758 1 10.699 5.49567 3.99134
1055 1 12.1508 4.37606 3.84826
912 1 12.3642 5.48319 4.10411
911 1 11.6893 5.23774 3.55976
1056 1 12.8755 4.70544 3.28542
1060 1 14.2431 5.12548 3.6747
1458 1 14.9353 4.42546 2.94205
1225 1 15.1709 5.59121 3.23353
1071 1 15.1868 5.04925 4.2463
1480 1 17.4885 4.6427 3.18154
1727 1 18.7319 4.54607 3.10607
1473 1 19.907 5.06581 3.25192
1716 1 19.0122 4.95044 4.14904
1782 1 21.18 4.90029 2.90096
1789 1 20.7941 5.28798 4.04551
2028 1 22.7491 4.99715 3.12059
1713 1 21.9781 4.94139 3.80605
2030 1 22.7842 5.69804 3.90925
2027 1 23.61 4.62825 3.33884
2040 1 25.5804 4.56023 3.46203
2348 1 24.3887 5.51076 3.1515
2036 1 26.5455 4.36822 3.24033
2112 1 26.3068 5.43365 3.85023
2335 1 27.5535 4.45463 2.8793
2035 1 27.1606 4.8834 3.73102
2037 1 28.2638 5.26752 4.08492
108 1 28.3911 5.27287 3.02295
107 1 28.6366 4.4213 3.41537
194 1 29.304 5.34898 4.08126
204 1 0.0624804 6.00611 3.59908
190 1 0.334132 7.13513 3.65842
189 1 0.845217 6.56289 3.11388
202 1 1.10969 6.48689 4.27423
184 1 2.25837 6.65379 3.62564
419 1 3.69238 5.85922 3.53588
281 1 3.19953 6.67289 3.02726
500 1 4.51261 7.11388 3.61343
512 1 5.06081 6.26838 4.00734
594 1 6.9068 5.76409 3.5093
593 1 5.92816 5.89505 3.43015
587 1 6.51482 6.80062 4.22679
819 1 7.27189 6.76137 3.28007
811 1 8.38146 6.45574 2.98173
504 1 7.7489 6.38444 4.09539
1135 1 9.62291 6.05806 3.0083
812 1 8.80129 6.33871 3.78145
897 1 9.84817 6.17946 3.96639
824 1 10.9704 5.71695 2.88571
898 1 10.6497 6.4776 3.53
1277 1 11.4904 6.94588 2.98492
1170 1 12.0342 6.46352 3.72159
1137 1 13.2528 5.7452 3.57224
1148 1 14.1165 6.28722 3.40396
1233 1 13.2917 6.97706 4.023
1160 1 14.924 6.76089 4.12393
1142 1 15.554 6.93984 2.88355
1226 1 16.0573 5.91362 3.22085
1481 1 16.8818 6.69861 3.19389
1558 1 16.1881 6.73347 3.96534
1464 1 17.5449 5.7356 3.52813
1489 1 17.7197 6.62774 4.09541
1715 1 18.5408 5.90942 4.16035
1474 1 19.4325 5.8428 3.54125
1795 1 18.7916 6.91586 3.82834
1774 1 21.3226 6.73925 3.28836
1781 1 20.6331 5.72948 2.99744
2121 1 20.4998 6.44904 3.93098
1773 1 21.5017 5.7964 3.55337
2029 1 22.3648 6.51589 3.48362
2031 1 23.3256 6.01207 2.9942
1791 1 23.41 6.85892 3.69101
2118 1 23.9698 5.78766 4.0708
2347 1 25.3292 5.79792 3.41954
2102 1 24.4369 6.65121 3.32622
2358 1 26.8602 5.82038 2.89735
2337 1 26.5082 6.65769 3.2405
2414 1 27.111 6.01156 4.18463
2428 1 26.7682 7.02453 4.22275
2499 1 28.2678 6.99789 3.50115
2413 1 27.803 6.13855 3.66353
207 1 28.8228 6.06044 3.57771
2438 1 29.2772 6.96771 3.82718
294 1 1.39355 7.52891 3.65561
58 1 1.3932 8.40969 2.8663
279 1 2.40745 7.44312 4.20528
280 1 2.53537 8.23031 3.71662
53 1 1.5805 8.30697 4.26103
575 1 3.79679 8.43476 3.11048
282 1 3.13076 7.57714 3.13641
569 1 5.49541 7.95595 3.57501
506 1 6.70574 7.69778 3.07577
588 1 6.48271 7.78821 4.16901
565 1 7.57689 7.84718 3.63738
566 1 8.45446 7.42784 3.49321
502 1 9.18483 8.38536 2.8948
803 1 9.53219 7.65957 3.67744
919 1 8.61461 8.26787 4.15978
1214 1 10.8289 7.70808 3.33514
804 1 10.2536 7.23371 4.13432
686 1 10.5498 8.48887 4.06665
1269 1 12.4965 7.4399 2.99808
1139 1 11.6873 7.42061 3.87319
1140 1 12.2813 8.16676 3.69407
1216 1 13.9128 7.76926 2.90029
1468 1 13.6646 7.89591 4.10276
1553 1 14.9823 7.73033 3.47363
1554 1 15.9177 7.75532 3.37384
1557 1 16.7276 7.50199 4.11819
1454 1 16.836 8.5007 3.4627
1490 1 17.9053 7.15341 3.36231
1807 1 18.2791 8.5695 3.68413
1808 1 17.9261 7.89088 4.19607
1547 1 19.1688 7.99257 3.17475
1548 1 19.8128 7.27544 3.15425
1893 1 19.6414 7.64067 4.23315
1868 1 19.9002 8.43646 3.64301
1853 1 20.8852 7.78328 2.92513
2122 1 20.7272 7.4255 4.14843
1859 1 21.0867 8.52896 3.69908
2107 1 21.6896 7.61486 3.76099
1792 1 22.8412 7.55184 3.35167
2169 1 24.1988 7.80961 2.91056
2275 1 24.0699 8.05828 3.95343
2276 1 24.9176 7.62301 3.90435
2199 1 25.2295 8.3185 3.16661
2338 1 26.3942 7.61227 3.36746
2191 1 25.8065 8.20134 4.08462
2518 1 27.0408 8.44293 4.12673
210 1 28.4759 7.90389 3.99003
2433 1 28.0568 8.34158 3.0622
2427 1 27.4593 7.54368 3.83681
2355 1 29.447 7.99594 3.1525
212 1 29.2919 8.4666 4.25
274 1 0.12645 9.70277 3.86857
54 1 1.32644 9.20997 3.93297
273 1 0.350946 8.75162 4.06703
57 1 1.83149 9.33829 2.92122
276 1 2.3847 9.29066 3.98944
24 1 2.73028 8.78809 2.87422
275 1 3.17779 9.56406 3.63972
277 1 3.98769 9.03355 4.22237
30 1 5.31297 9.9248 2.98255
571 1 5.44565 8.79372 2.86754
278 1 4.67076 8.94018 3.52392
596 1 6.0269 9.52249 3.84054
577 1 7.10744 9.83941 2.96348
505 1 6.4294 8.57201 3.46378
590 1 7.43764 8.92548 3.33071
589 1 8.09947 9.16821 3.90403
905 1 9.57055 8.7435 4.01021
584 1 9.84425 9.87676 4.21063
895 1 9.0408 9.5286 3.52632
1213 1 11.0631 8.6608 3.24007
906 1 10.1297 9.07079 3.33447
886 1 10.8881 9.61903 2.89844
1229 1 10.7663 9.47025 4.00875
903 1 11.9071 9.61562 3.51001
1235 1 12.8498 8.90835 4.24029
1219 1 12.9735 9.55566 3.41139
1152 1 13.5687 8.57843 3.46474
1220 1 13.9229 9.78453 3.35755
1228 1 15.4134 8.67176 3.55301
1227 1 14.9718 9.5488 3.6467
1570 1 16.2105 9.38396 3.28467
1574 1 18.4071 9.90793 3.44897
1573 1 17.6477 9.45162 3.10575
1497 1 17.478 8.91028 4.2759
1549 1 18.9156 9.04739 2.98077
1550 1 19.093 9.14939 3.93305
1867 1 19.9181 9.38875 3.41441
1871 1 21.3158 9.54128 3.67488
1860 1 22.0143 8.66537 3.71006
1861 1 22.5296 9.71148 3.69139
2177 1 23.0972 8.94458 3.07407
2190 1 23.2453 8.72409 4.19294
1926 1 24.4134 9.65738 3.28263
2192 1 25.4873 9.11178 4.20831
2200 1 26.1297 8.66478 3.11332
2505 1 26.8837 9.40248 3.47002
290 1 27.9622 9.51867 3.06094
2280 1 27.7286 9.45367 4.05027
291 1 29.65 8.93096 3.25558
2457 1 28.5851 8.97215 3.83815
292 1 29.0667 9.74774 3.31396
42 1 0.446027 0.768076 4.48684
39 1 1.88533 1.06243 4.94221
49 1 2.64444 0.0799191 5.61615
360 1 3.62437 0.368711 4.37296
448 1 3.8305 1.37593 4.6758
447 1 3.07297 0.974514 5.08474
358 1 4.99407 0.778829 4.73097
595 1 5.81119 0.329835 4.32325
781 1 5.96242 1.18128 4.87291
782 1 6.67159 0.552996 4.90885
615 1 7.88105 0.387876 5.04952
683 1 7.44816 1.30438 5.14043
682 1 8.74341 0.840964 4.98672
654 1 9.79719 0.833779 4.65995
653 1 9.61113 0.0741827 5.33119
1230 1 10.7309 0.208905 4.65343
910 1 10.2796 0.807831 5.51596
909 1 11.1818 0.57693 5.6909
1206 1 11.7619 0.399763 4.69163
1208 1 12.6259 0.356991 5.69267
1240 1 12.7016 1.13173 4.96514
1207 1 13.3419 0.126312 5.02183
1248 1 14.1889 0.282788 5.71364
677 1 14.0544 1.17972 5.11011
1246 1 14.3215 0.118438 4.38055
999 1 15.3711 0.632836 4.50713
1401 1 15.7659 0.688123 5.66132
1328 1 16.4747 1.37478 5.06426
1402 1 16.5694 0.23636 5.40228
1327 1 17.2954 0.857515 4.79389
1639 1 18.5235 0.417452 4.63404
1896 1 18.7298 0.704472 5.60843
1659 1 20.2258 1.11471 4.66493
1634 1 21.1335 0.434577 4.59672
1658 1 20.6935 0.0907667 5.66516
1856 1 22.7624 0.250496 5.44885
1855 1 22.8513 0.257632 4.47506
1635 1 22.3888 1.16433 4.92889
2193 1 23.4403 1.08705 5.39682
2194 1 24.1512 0.424183 5.22911
2256 1 25.223 1.07132 4.40714
1983 1 25.1934 0.492391 5.42735
2513 1 26.5768 0.97389 4.65954
2274 1 25.9914 0.136818 4.68686
2514 1 26.5015 0.847962 5.57961
2279 1 27.8836 0.376134 4.34415
2295 1 28.1835 1.23402 4.79182
1976 1 27.395 0.501704 5.34314
2293 1 29.7567 0.327845 5.16571
2528 1 29.1066 0.79347 4.36663
2304 1 28.9358 0.524462 5.65434
2385 1 29.5653 1.42014 5.14737
2352 1 0.839531 1.46209 5.06593
2447 1 1.22561 2.40028 5.58594
2351 1 0.194714 2.0474 4.77951
122 1 1.56707 1.98436 4.56889
45 1 2.51713 1.9226 5.23473
46 1 2.0968 2.81229 5.25557
128 1 3.28275 2.6901 5.09361
61 1 3.67978 1.69135 5.60124
357 1 4.80782 1.67345 4.46907
437 1 5.08695 1.75955 5.39252
428 1 6.70096 1.86009 4.89064
349 1 5.8679 2.67048 5.1644
343 1 7.7549 2.02888 4.42182
665 1 8.54085 2.83811 4.67681
361 1 7.73341 2.59729 5.29382
362 1 8.37501 1.86122 5.21167
754 1 9.41492 1.76754 5.32625
753 1 9.48189 2.71212 5.24135
982 1 10.3963 1.95829 4.59914
981 1 10.4631 2.82954 4.29213
995 1 11.1827 1.56646 5.00338
996 1 10.4432 1.83485 5.60127
672 1 10.6391 2.78726 5.33107
737 1 11.4854 2.61046 4.71224
738 1 12.2426 2.16661 4.36152
1237 1 12.3477 2.04925 5.36068
1239 1 13.1909 1.89577 4.62957
998 1 15.118 2.39874 4.56297
1090 1 15.6497 2.00127 5.33583
1162 1 14.3649 2.2956 5.40605
1403 1 16.4783 2.43951 4.96
1392 1 18.2853 1.52066 4.84173
1319 1 17.313 1.86017 5.34502
1741 1 18.1848 2.58041 5.09904
1641 1 19.1509 2.25934 4.7016
1642 1 19.478 1.80951 5.51691
1660 1 20.4387 2.03874 4.33242
1717 1 21.2947 1.47549 4.71601
1719 1 20.5948 1.77857 5.48212
1733 1 21.0274 2.73933 4.95807
1734 1 21.8892 2.32564 4.55553
1654 1 22.4692 2.73796 5.5455
1648 1 21.5674 1.79887 5.65838
1623 1 23.1492 2.05717 4.8591
1948 1 25.4644 2.44156 4.59995
1955 1 24.4064 1.49091 4.84914
1947 1 25.4849 2.46942 5.54779
1945 1 24.4209 2.41565 5.21893
2255 1 25.6442 1.55552 5.16164
2362 1 26.1397 1.81378 4.29972
1973 1 26.5643 2.33165 5.64377
2123 1 26.7134 2.8353 4.31811
2282 1 27.7314 2.3282 4.35418
2296 1 27.3775 1.63894 5.16014
2386 1 28.8937 2.05408 5.09588
2442 1 29.9517 2.75622 5.4885
2448 1 0.766402 2.86167 4.85754
2360 1 0.307977 3.79181 5.11289
127 1 2.80194 3.51645 4.88339
126 1 1.77446 3.86997 4.94006
130 1 3.79524 3.66599 5.30015
129 1 4.38604 2.93306 5.3193
431 1 5.46878 3.54746 5.55798
760 1 6.83148 3.17459 5.00068
432 1 5.75138 3.65819 4.59583
667 1 8.19475 3.3691 5.65938
829 1 7.51049 4.15082 5.317
761 1 8.85692 3.86924 4.85132
748 1 9.87502 3.61613 4.60336
671 1 11.0545 3.55358 4.84178
778 1 10.3005 3.88992 5.5565
1075 1 12.2346 3.3784 4.53203
1167 1 12.7396 4.13147 5.16268
1014 1 12.0496 3.02542 5.43287
983 1 14.1209 2.97253 4.71675
1081 1 13.1234 3.00606 4.87948
1079 1 13.7319 4.24097 5.09343
1080 1 14.4152 4.11915 4.46443
1134 1 15.1681 3.46311 4.87976
1381 1 16.2928 3.68579 4.59593
1404 1 16.0559 3.08045 5.62146
1420 1 17.3065 4.07959 4.37333
1742 1 18.229 3.53304 5.29088
1411 1 17.374 3.19343 4.85598
1311 1 19.8655 3.20423 4.7955
1731 1 19.0306 4.12543 4.90365
1752 1 19.2041 2.89236 5.66148
1732 1 19.9674 4.20918 5.28738
1650 1 21.0069 3.78962 5.00083
1649 1 20.5864 3.34036 5.70629
1729 1 22.3006 3.32148 4.53494
1730 1 22.032 3.69174 5.34253
1624 1 23.4769 2.87245 5.18783
1627 1 23.4543 3.25665 4.32362
2046 1 24.1472 4.05015 5.48492
2041 1 22.9685 4.12845 5.3455
1946 1 24.7028 3.29059 4.93234
2049 1 26.6371 3.41153 5.58054
1966 1 25.7779 4.09736 5.50171
1965 1 25.845 3.31678 4.91745
2050 1 27.055 4.18258 5.25459
2281 1 27.4061 2.93739 5.0752
2365 1 27.644 4.25746 4.39583
2366 1 28.1774 3.63973 4.87725
2285 1 28.5347 2.97682 5.57048
200 1 29.1359 4.15751 4.33506
2441 1 29.3633 2.94294 4.75473
203 1 0.493645 5.64763 4.30011
2369 1 0.961047 4.55586 4.32134
124 1 0.667687 4.77825 5.20539
123 1 1.1864 5.63455 5.04801
592 1 2.39672 5.33483 5.04398
191 1 2.95332 4.5462 5.14911
116 1 3.92585 4.72827 5.16988
591 1 3.24112 5.70201 5.07441
441 1 4.9399 5.18896 4.36981
115 1 4.87242 4.53838 5.28115
522 1 4.95269 5.63828 5.48706
348 1 6.79412 4.81745 4.88458
827 1 7.6815 5.22898 5.67333
830 1 8.17364 4.60111 4.83011
503 1 7.50714 5.62976 4.66234
751 1 8.94849 5.04629 4.45579
752 1 9.85481 4.716 4.39575
749 1 8.77268 5.30538 5.68289
750 1 9.41703 4.60404 5.36002
846 1 10.247 5.56779 4.91222
757 1 11.0244 4.63117 4.39646
1094 1 11.2314 4.79599 5.56435
1168 1 12.1003 4.76788 4.77504
1059 1 14.2054 5.61177 4.5004
1189 1 13.1815 5.11974 4.81597
1097 1 14.9447 4.83549 5.37574
1098 1 15.7266 4.49034 5.01369
1475 1 16.7754 5.00197 4.87871
1496 1 15.9393 5.55686 5.25304
1463 1 17.6221 5.1418 4.3448
1397 1 17.5712 4.5183 5.34497
1398 1 18.3378 5.02641 5.07249
1725 1 19.3893 4.97078 5.58359
1799 1 19.8409 5.57813 4.67275
1701 1 20.2857 4.5831 4.40729
1702 1 20.6697 4.97094 5.1798
1723 1 21.4191 5.67541 5.60997
1714 1 21.5372 4.59004 4.65555
2042 1 22.5472 4.3979 4.48951
1739 1 22.5138 5.69588 5.59342
1962 1 23.5995 4.49633 4.39405
1961 1 23.1571 5.21881 4.70802
2025 1 24.8298 4.89174 5.35991
2026 1 24.7108 5.05663 4.44222
2128 1 25.6087 5.53536 5.15172
2367 1 26.0737 4.73264 4.68183
2368 1 26.9577 5.10859 4.73886
2465 1 28.1475 4.70293 5.26267
2436 1 27.7399 5.61496 5.70189
117 1 29.6946 4.78461 5.13563
193 1 28.7829 5.34696 4.88725
138 1 0.422444 6.60393 5.04596
137 1 1.1459 6.37902 5.6276
284 1 2.08125 6.26542 4.85985
283 1 2.80644 6.73918 5.26084
201 1 1.57372 7.06724 4.8684
499 1 3.97318 6.87736 4.43891
183 1 2.93664 6.52416 4.30001
219 1 4.07 6.30334 5.40448
511 1 5.53113 7.03978 4.34089
509 1 4.94324 6.72702 5.30995
514 1 6.17968 5.75784 4.88625
513 1 6.93155 6.30865 5.33561
1064 1 8.329 6.09294 5.05555
1063 1 7.85081 6.8301 5.40366
917 1 8.34573 7.1298 4.52751
845 1 9.32761 5.94717 4.89308
831 1 9.86676 6.8763 5.12421
835 1 10.8105 6.42691 4.71807
1156 1 11.2638 6.53187 5.63051
836 1 11.4642 5.7258 4.71324
1169 1 12.0575 6.61676 4.70029
1153 1 12.6297 5.81031 5.43156
1190 1 13.1667 6.07073 4.70888
1252 1 13.1615 7.04866 5.14059
1255 1 13.9928 6.70583 5.6359
1072 1 15.6163 5.91553 4.36552
1177 1 14.8007 6.30886 5.06225
1476 1 16.7855 5.84287 4.36493
1499 1 16.0861 6.54839 5.18174
1495 1 16.8713 5.75947 5.55124
1485 1 17.2059 6.66245 4.98893
1421 1 18.4705 6.85315 5.01899
1486 1 17.7257 5.86442 5.05139
1478 1 18.8924 5.83912 5.29111
1796 1 19.4023 6.55049 4.49661
1790 1 20.7812 5.93063 4.83204
1800 1 20.094 5.77138 5.54157
1801 1 20.1662 6.96434 5.08549
1787 1 21.5587 6.67014 4.30934
1883 1 21.6599 6.64701 5.56828
1788 1 21.7971 5.81706 4.63034
2114 1 22.4905 6.52038 4.93755
2117 1 23.592 6.27098 4.83439
2127 1 24.8347 6.10119 5.03565
2129 1 24.9496 6.72506 4.33439
2111 1 25.9701 6.21651 4.40485
2140 1 26.8647 6.7075 5.32631
2133 1 25.7844 6.86651 5.39434
2445 1 27.9588 6.81459 4.58278
2038 1 27.9457 5.83595 4.75116
2446 1 28.3863 6.38102 5.40469
118 1 29.8607 5.7184 5.04724
113 1 29.6513 6.9614 5.59858
2437 1 29.2032 6.49331 4.63342
293 1 0.768328 7.66199 4.4278
214 1 0.327803 8.27515 5.09141
2308 1 2.15522 7.84933 5.28025
515 1 3.81223 7.90117 4.48024
35 1 3.13222 7.76666 5.31028
269 1 4.17451 7.81621 5.46886
36 1 3.13421 8.55052 4.73251
516 1 4.70572 8.20427 4.33902
510 1 5.22669 7.64082 5.15333
582 1 6.42407 7.47046 5.1525
916 1 7.01313 8.36446 5.65357
603 1 7.21776 8.49573 4.44982
918 1 7.35734 7.35503 4.56969
920 1 8.16324 8.02895 4.99496
1173 1 9.58579 7.96676 4.89245
833 1 8.97785 7.34853 5.38135
921 1 10.848 7.38192 5.08276
1174 1 10.1104 8.22371 5.61077
685 1 11.0354 8.32744 4.8753
1234 1 12.6144 7.54985 4.34831
1242 1 12.1656 8.30063 5.13494
1159 1 14.2614 7.17167 4.65449
1467 1 13.2174 8.12909 4.93201
1541 1 14.1548 8.53092 5.10473
1542 1 14.7045 8.41407 4.30937
1145 1 15.6674 7.50523 4.51544
1576 1 14.3686 7.65625 5.59443
1146 1 15.2131 7.20297 5.31446
1564 1 15.571 8.46698 5.11966
1563 1 16.1153 8.51853 4.29717
1559 1 17.0822 7.66664 5.28775
1560 1 16.174 7.66613 5.65961
1498 1 17.6234 8.53086 5.1503
1805 1 18.3528 7.93186 5.57377
1894 1 19.2868 7.49064 5.06012
1903 1 18.9425 8.57076 4.92937
1492 1 20.1232 8.16146 5.70994
1491 1 20.3593 8.25368 4.75349
1863 1 21.1891 7.52279 5.24964
1864 1 21.4978 8.30662 4.70996
2108 1 22.3275 7.56104 4.46383
2197 1 23.9456 8.0802 4.98061
2198 1 23.2863 7.37221 4.83702
1885 1 22.8953 8.15199 5.39793
2130 1 25.6924 7.26002 4.52171
2202 1 24.6803 7.3987 5.36368
2451 1 25.8455 8.49783 5.24127
2443 1 26.7217 7.75131 5.05106
2444 1 27.6241 7.9431 4.85163
2203 1 27.9166 7.3901 5.68958
209 1 28.7032 7.48171 4.78512
2439 1 29.3358 8.48629 5.39184
211 1 29.785 7.6192 4.47404
2292 1 0.541062 9.76762 4.78761
44 1 1.06631 8.89314 5.04774
43 1 0.523471 9.31041 5.70414
34 1 1.64261 9.90195 4.7502
33 1 2.10038 9.18157 5.23122
359 1 3.13598 9.65166 4.78577
59 1 3.98435 8.96522 5.70037
261 1 4.37574 9.95663 4.88883
600 1 4.74811 8.85569 5.07196
599 1 5.29127 9.37714 4.48194
604 1 6.96039 9.39715 4.29043
598 1 6.04482 8.67386 4.4786
368 1 6.19485 9.62853 5.11696
367 1 7.08494 9.31089 5.381
597 1 5.82639 8.70884 5.37541
585 1 8.00888 8.96991 5.41522
583 1 8.92647 9.85166 4.60455
914 1 9.17484 8.90633 4.95237
924 1 8.71598 9.67846 5.63998
913 1 10.119 9.2281 4.89583
1223 1 11.7704 9.37119 5.38032
1224 1 11.9069 9.11576 4.38855
1236 1 12.8303 9.29431 5.16702
1245 1 13.8153 9.26188 4.34376
1247 1 14.4621 9.44208 5.34308
1315 1 15.1569 9.3212 4.65746
1316 1 15.5553 9.71058 5.49391
1579 1 16.6923 9.15144 5.39671
1580 1 16.5814 9.59261 4.5782
1904 1 18.4047 9.33965 4.67194
1561 1 17.5607 9.77244 5.13303
1887 1 19.8612 9.66861 4.45631
1888 1 19.9652 9.06576 5.247
1895 1 19.2965 9.91675 5.47806
1872 1 20.835 9.25717 4.50918
1890 1 21.0573 8.65813 5.55146
1637 1 22.3452 9.16636 4.59371
1643 1 21.7641 9.61764 5.31129
1638 1 22.7835 9.19407 5.44056
2189 1 24.1574 8.95248 4.32428
1949 1 23.5404 9.6985 4.93126
1950 1 23.8128 8.97234 5.50192
2512 1 24.7191 9.49733 5.65068
2452 1 24.8737 8.60662 5.23013
2511 1 25.5334 9.40954 5.20049
2517 1 26.4911 9.0428 4.53228
2119 1 26.6299 8.98692 5.67789
1975 1 27.2175 9.61053 4.97044
2458 1 28.4126 8.88525 4.76989
2120 1 27.5873 8.63902 5.69536
2527 1 28.84 9.89127 4.42632
2291 1 29.6876 9.30002 4.77636
300 1 0.652843 0.475136 5.87758
2377 1 0.284527 1.08929 7.03572
40 1 1.60505 1.32254 5.79662
70 1 2.30317 0.58314 6.39996
364 1 4.0279 0.00542677 5.95119
67 1 4.12623 0.745755 6.69678
374 1 5.55733 1.17075 6.57978
363 1 4.72902 0.603994 5.7444
373 1 5.93469 0.625532 5.84437
618 1 6.9746 0.257386 5.81392
323 1 7.10137 1.30825 6.93742
622 1 8.0348 0.770981 6.47829
681 1 8.84737 0.939741 5.98801
698 1 9.72352 0.128486 6.74556
674 1 10.7067 0.677276 6.55402
1238 1 12 1.21461 5.77098
1572 1 12.6922 0.666554 6.63004
1571 1 13.6982 0.819277 6.61839
1322 1 14.5459 0.278443 6.69078
1332 1 14.7998 1.18935 5.8676
1331 1 15.3217 1.07712 6.71226
1323 1 16.6296 0.12375 6.45444
1333 1 16.2558 1.398 6.54801
1661 1 17.3999 0.748735 5.86848
1662 1 17.1896 0.86693 6.8116
1897 1 18.1821 0.707029 6.67369
1657 1 19.9389 0.648592 5.79372
1898 1 19.0906 0.204225 6.53873
1655 1 19.8287 1.30665 6.63513
1720 1 20.816 1.17785 6.20264
1737 1 21.2896 0.0783274 6.71139
1738 1 20.3438 0.282188 6.63559
1647 1 21.684 0.87974 5.81214
2210 1 22.2494 0.6865 6.80331
1980 1 21.476 1.1822 7.09822
1954 1 23.2256 0.719585 6.39886
2224 1 24.1748 1.01187 6.93405
1922 1 24.4164 0.288125 6.20542
2223 1 25.0584 0.570875 7.09199
1978 1 25.9506 0.907823 6.72721
2531 1 26.0806 0.0165281 7.12281
2242 1 28.1354 1.00344 6.87088
2241 1 27.3697 0.713412 6.41632
299 1 29.8656 1.0033 6.02806
2283 1 29.7607 0.0204247 6.66606
301 1 0.365431 2.04088 6.0378
302 1 1.02841 1.69861 6.65492
143 1 1.0426 2.65516 6.70077
48 1 2.05588 2.42032 6.22113
69 1 2.07185 1.45538 6.91976
62 1 2.96503 1.86084 6.25593
197 1 3.80648 2.78099 6.18876
365 1 4.53133 1.82297 6.50087
438 1 5.69628 2.06263 6.10331
198 1 4.81723 2.69195 6.2488
324 1 6.6898 1.46535 6.12434
759 1 6.85808 2.56159 5.77008
792 1 6.85921 2.40428 6.84946
689 1 8.3199 1.86882 6.81429
684 1 7.68564 1.56529 6.03673
668 1 7.83527 2.79056 6.35464
690 1 8.72528 2.27992 6.07598
641 1 9.74051 1.57442 6.47467
673 1 11.0831 1.47265 6.42971
642 1 10.3072 2.37565 6.51096
1070 1 12.7906 1.89042 6.59286
1013 1 11.6062 2.47067 6.0826
678 1 13.3838 1.57454 5.74952
1069 1 13.5567 2.52273 6.70681
1021 1 14.1819 1.74713 6.68593
1089 1 15.4991 2.25105 6.3044
1334 1 16.555 2.11504 5.98453
1320 1 17.9877 2.12774 5.94326
1366 1 17.2025 1.89929 6.74818
1326 1 18.8713 2.21374 6.52459
1410 1 19.8926 2.5104 6.33509
1409 1 20.7513 2.27231 6.69922
1636 1 22.4904 1.59137 5.80702
1986 1 21.8116 2.5834 6.62281
1653 1 23.0417 2.38025 6.24902
1957 1 23.7493 2.79606 7.00435
1951 1 24.09 1.72284 6.03716
1646 1 23.0393 1.6593 6.91582
1952 1 25.0463 1.46441 6.07146
1972 1 24.8704 2.27339 6.76667
1974 1 25.9946 1.79382 6.1183
2373 1 27.0919 1.79608 6.46452
1967 1 26.0039 2.82113 6.44891
2286 1 27.8546 2.27838 5.73798
2374 1 27.1882 2.72283 6.42596
2310 1 28.2939 2.1962 7.00325
2303 1 28.8446 1.4412 5.89134
2383 1 29.3376 2.74691 6.23629
141 1 0.986761 3.35831 5.87836
142 1 0.159149 3.50471 6.2549
150 1 1.22009 3.77686 6.91158
125 1 2.32072 4.0272 5.74472
47 1 1.95131 3.34533 6.44624
51 1 2.91425 3.22257 6.00988
52 1 2.92046 3.21162 7.06022
457 1 3.72192 3.90595 6.41411
458 1 4.50237 3.46133 6.86913
440 1 6.41395 3.94267 5.71787
449 1 6.05209 3.12544 6.53875
456 1 6.98788 3.43387 6.52296
694 1 8.46464 4.01885 6.70157
762 1 9.22391 3.55336 5.72055
675 1 8.76655 3.11656 6.95149
783 1 9.75634 3.41401 6.61951
777 1 10.9465 3.76831 6.22619
1096 1 12.5089 2.98438 6.94218
771 1 11.9926 3.96899 6.12833
1161 1 14.0403 3.08366 5.76648
1082 1 13.0101 3.00141 5.85672
1172 1 13.2742 4.16214 6.54451
1150 1 14.027 3.59921 7.02725
1133 1 15.0935 3.65689 5.80879
1149 1 14.6229 2.88865 6.68436
1506 1 14.9078 4.25897 6.96273
1418 1 15.6773 2.97337 7.08897
1412 1 17.1067 2.94403 5.74267
1084 1 16.3319 3.61963 6.49114
1164 1 16.5608 4.24988 5.73497
1083 1 16.9683 3.50741 7.13787
1163 1 17.3332 3.87361 6.19501
1751 1 18.529 3.28344 6.22955
1427 1 17.898 3.08484 7.07518
1670 1 19.322 3.15746 6.82173
1726 1 19.1735 4.09014 5.91897
1664 1 21.1457 4.22396 6.26198
1688 1 20.0926 3.86678 6.71855
1690 1 21.1606 3.41674 6.8152
1689 1 22.0429 3.61868 6.42082
1970 1 24.2628 3.0419 5.97905
1969 1 23.3744 3.41669 6.0606
1958 1 23.0545 3.44269 7.06593
2064 1 23.8947 3.96186 6.80966
2045 1 24.914 3.97725 6.05598
2063 1 24.7685 3.48757 7.0218
2137 1 26.7063 3.48811 6.83846
2138 1 25.808 3.83041 6.74958
2372 1 27.584 3.68171 6.01904
2381 1 28.3934 4.23046 6.85488
2382 1 28.2985 3.33465 6.72109
2384 1 29.2669 3.61158 5.77441
149 1 1.24325 4.45619 6.15235
2454 1 0.0834745 4.45124 6.02656
134 1 0.646886 5.28301 6.38114
133 1 0.44583 4.55179 6.90459
547 1 2.61342 4.3745 6.80991
469 1 2.58861 5.37094 6.63775
236 1 1.77948 5.2916 5.80246
192 1 3.08461 4.82895 6.02439
518 1 4.09383 4.82277 6.59922
517 1 4.89838 4.37171 6.38247
521 1 5.09546 5.33757 6.40856
439 1 5.80423 4.68966 5.79388
763 1 6.73378 5.27201 5.81793
464 1 5.90108 4.51864 6.88602
764 1 6.21588 5.48824 6.58887
455 1 7.29632 4.33953 6.33621
693 1 8.4601 4.33312 5.81799
443 1 7.80775 5.17875 6.76951
769 1 9.55456 5.16142 6.28126
765 1 8.98963 4.86085 7.02324
770 1 10.0985 4.43991 6.6896
1103 1 11.1792 5.00082 6.68212
1093 1 11.7109 5.5653 5.80656
772 1 12.3707 4.87993 6.32439
1104 1 11.8534 4.55806 7.11983
1171 1 13.3953 4.8442 5.87698
1192 1 13.8216 4.82329 7.02056
1505 1 14.3332 4.38605 6.19085
1191 1 14.5282 5.50764 6.89338
1501 1 15.6137 5.24836 6.94239
1414 1 15.7278 4.62435 6.1883
1413 1 16.6013 4.99094 6.33414
1665 1 17.9539 5.40197 5.98397
1666 1 18.1611 4.47775 6.16577
1423 1 17.5825 5.275 7.13094
1686 1 19.863 4.95834 6.58201
1405 1 18.8575 4.8497 7.03609
1663 1 20.723 5.08687 6.17786
1754 1 21.9649 4.79116 6.81832
1753 1 21.923 4.78156 5.79941
1684 1 23.0389 4.95113 6.89363
1963 1 23.47 4.89585 5.95109
2054 1 23.9352 5.37151 6.93375
1964 1 24.3683 4.72503 6.34591
1722 1 24.7814 5.70989 6.13605
2043 1 25.5232 4.89452 6.29732
2044 1 25.049 4.7139 7.11178
1811 1 26.1898 4.76325 7.0535
1812 1 26.4759 4.35456 6.19098
2449 1 26.6875 5.41664 5.91152
2371 1 27.4006 4.53622 6.46073
2466 1 28.7224 4.73191 6.03163
2453 1 29.4756 4.37116 6.76448
114 1 0.0421611 6.32747 6.09449
235 1 1.52108 5.75248 6.67218
206 1 2.24571 6.3075 6.01458
220 1 4.05714 5.99069 6.31261
205 1 3.13122 6.47969 6.24724
285 1 3.78275 6.97865 7.13628
839 1 5.00641 6.53882 6.32957
840 1 5.78068 6.17995 5.85803
608 1 6.57615 6.74829 6.3617
849 1 7.07422 6.02531 7.02764
828 1 7.60316 6.09776 6.06558
526 1 7.92914 6.88225 6.65446
832 1 9.7247 6.14703 5.83564
851 1 8.69199 6.31937 5.98226
852 1 8.70255 5.7679 6.77414
822 1 9.38999 7.06445 6.35175
922 1 10.6008 7.12991 5.98417
843 1 10.6251 5.85757 6.18432
844 1 10.4371 6.45924 6.99317
1155 1 11.6179 6.30066 6.56056
1154 1 12.3484 6.60325 5.81931
854 1 12.5554 6.94397 6.77571
1182 1 12.6673 5.79604 6.52606
1181 1 13.6017 6.02992 6.61601
940 1 13.6886 7.07093 6.9978
1178 1 14.8905 5.91064 5.94585
1256 1 14.5387 6.98424 6.34837
1415 1 15.5757 6.90796 6.42647
1416 1 15.9952 6.07379 6.151
1507 1 16.9773 6.06543 6.66342
1500 1 16.7195 6.80733 5.90027
1508 1 16.2611 6.59029 7.02418
1744 1 17.7732 6.35367 5.97938
1743 1 18.1284 6.5259 6.84168
1823 1 17.1745 7.10936 6.84571
1422 1 18.75 6.76066 6.02329
1802 1 19.9746 7.04865 6.09464
1477 1 19.0728 5.79638 6.23896
1826 1 19.175 6.5885 6.85713
1735 1 19.9846 6.10867 6.723
1724 1 20.959 6.0732 6.3307
1740 1 22.1985 5.88239 6.52514
1879 1 22.2651 6.86109 6.7024
1721 1 23.9422 5.80931 5.72758
2113 1 22.977 6.63265 5.74999
2053 1 23.4333 6.14213 6.94708
2116 1 24.0809 6.63227 6.18364
2149 1 24.2621 7.10076 7.04989
2134 1 25.7025 6.17319 6.08949
2115 1 24.9864 6.88635 6.22925
2450 1 26.6525 6.09437 6.58176
2139 1 26.4157 7.07262 6.11283
2435 1 27.5487 6.40563 6.16185
216 1 28.4831 6.00462 6.51386
215 1 29.1781 5.82414 5.90392
2204 1 28.6317 6.99374 6.1348
213 1 0.505561 7.56897 5.76956
224 1 1.39993 7.44198 6.37027
222 1 0.247104 7.16573 6.84353
218 1 0.0642702 8.04377 6.49831
223 1 2.12493 7.88779 6.90912
227 1 2.58567 7.32709 6.16721
2307 1 1.47871 8.27357 5.83213
295 1 2.58436 8.41538 6.08309
270 1 4.0112 7.25362 6.26679
228 1 3.1172 7.82464 6.76426
60 1 4.06939 8.4064 6.50938
611 1 4.95094 7.84937 6.31445
581 1 6.1211 7.87684 6.02649
607 1 5.88837 7.26129 6.80447
927 1 6.63837 8.30636 7.05693
928 1 6.97194 7.46239 6.99155
915 1 7.4258 7.54933 6.0063
586 1 8.04665 8.34029 6.21989
834 1 9.12528 8.07012 6.02283
821 1 9.80728 7.8194 6.66863
857 1 8.63067 7.70969 7.02518
936 1 11.3203 8.0078 5.84922
935 1 10.8359 7.99599 6.71321
1251 1 12.5406 7.56455 5.72198
853 1 11.9288 7.6656 6.5086
1266 1 13.5274 8.54166 5.99684
1166 1 14.2507 8.00133 6.98763
1265 1 13.1163 7.87096 6.62417
1335 1 15.4357 8.01812 6.70404
1575 1 14.7655 8.4567 5.95634
1588 1 16.631 7.98971 6.49233
1806 1 17.7681 7.48594 6.15509
1494 1 17.696 8.50997 6.39607
1825 1 19.1704 7.49794 6.98711
1816 1 18.6213 8.34384 6.54887
1603 1 19.7527 8.41259 7.05186
1793 1 21.078 7.46521 6.25188
1794 1 20.6621 7.69768 7.05422
1884 1 22.1128 7.47727 5.7694
1889 1 21.9272 8.47656 5.78487
1875 1 21.7594 8.36431 6.88948
1886 1 22.7363 8.03346 6.28992
2195 1 23.5733 8.56985 6.78608
1786 1 23.5596 7.64033 5.83284
1785 1 23.2948 7.21553 6.69963
2201 1 24.4437 8.0864 6.06144
2207 1 25.4898 7.73852 6.13805
2141 1 25.0724 8.08469 7.0411
2302 1 26.8587 8.02888 6.15514
2301 1 26.4111 8.28432 6.93466
2440 1 28.5167 8.35489 5.9731
2455 1 27.2733 7.21067 6.6911
217 1 29.191 7.79203 6.57547
2525 1 1.35018 8.71548 6.74242
2312 1 0.977145 9.96907 6.84727
2516 1 0.362517 9.0092 6.84504
315 1 1.83045 9.6152 6.06988
316 1 2.04783 9.65826 6.97722
296 1 2.80712 8.86403 6.9037
50 1 3.11378 9.35396 5.9933
388 1 3.37053 9.8647 6.97299
355 1 4.94418 9.20643 5.95603
623 1 4.88771 8.94644 6.95658
356 1 5.22795 9.99264 6.45499
624 1 5.74812 8.70318 6.68186
945 1 6.18635 9.72428 6.69979
946 1 6.7345 8.99417 6.31036
617 1 7.61927 9.72904 6.30266
838 1 9.03369 8.72651 6.83045
923 1 9.54922 9.18366 5.84898
697 1 8.7854 9.98198 6.82671
837 1 9.99549 8.92434 6.76794
1012 1 11.3311 9.80891 6.57901
669 1 10.5243 9.74133 5.73603
670 1 10.8414 8.86158 6.08606
1241 1 12.3685 8.6116 5.99558
1568 1 12.3837 9.64839 6.6743
1487 1 13.3864 9.80956 6.98939
1488 1 13.3457 9.70595 6.02122
1258 1 15.3009 9.04967 7.04753
1257 1 14.3795 9.03309 6.80507
1324 1 15.7079 9.97061 6.47774
1493 1 16.9425 9.09411 6.43661
1336 1 15.955 8.7462 6.25978
1581 1 17.5377 9.75271 6.92736
1582 1 18.0009 9.83948 6.05306
1819 1 19.8323 9.3355 6.38101
1815 1 18.8585 9.10121 5.99936
1891 1 18.8971 9.22302 7.0521
1820 1 20.6216 8.82027 6.58616
1644 1 21.915 9.37993 6.22122
2196 1 22.8416 9.06034 6.42911
1921 1 24.0365 9.96103 7.02098
2209 1 22.8638 9.92872 6.94511
1953 1 23.4564 9.87617 6.11944
1984 1 25.4361 9.97396 6.26341
2208 1 25.3511 8.72332 6.16045
2125 1 25.2535 9.18604 7.10688
2126 1 24.5102 9.10858 6.53469
2532 1 26.4669 9.92669 6.21894
2216 1 26.8729 9.3941 7.06589
2297 1 28.5279 9.66011 6.1048
2521 1 27.4776 9.65925 6.14455
2522 1 27.7731 8.93976 6.6707
2298 1 28.4016 9.83313 7.03436
2294 1 29.5369 9.57994 5.79578
2515 1 29.4566 8.78681 6.85352
66 1 1.2872 1.02815 8.53151
2305 1 0.301169 0.866738 8.44389
2311 1 1.45319 0.726571 7.27266
74 1 2.23924 0.79488 8.01912
1 1 3.02181 1.32938 7.21487
2 1 3.49599 0.679317 7.79227
453 1 5.6833 1.26092 8.25126
605 1 4.73809 0.809716 7.80845
371 1 5.44314 0.129504 7.55953
372 1 6.21282 0.647115 7.39013
390 1 6.75891 0.475007 8.3302
621 1 8.11893 0.56798 7.4798
704 1 8.40835 0.766212 8.48653
699 1 9.42505 0.152654 7.95596
679 1 9.11912 1.30742 7.51086
1018 1 10.0978 1.04224 7.3829
696 1 10.0606 0.888585 8.54962
933 1 10.8028 0.232054 8.30577
1011 1 11.8305 0.365296 7.16919
1261 1 11.542 0.869803 7.90338
1087 1 12.4436 1.32473 7.40473
1591 1 13.0077 0.393857 7.83774
1337 1 14.0708 0.0428059 8.54465
1009 1 15.4441 0.23844 7.56228
1023 1 14.4442 0.942285 7.74761
1010 1 16.1429 0.91656 7.50813
1349 1 17.8336 0.555021 7.69889
1899 1 19.7045 0.622009 7.55815
1656 1 20.4872 1.34316 7.34511
2220 1 21.354 0.960062 8.07755
1652 1 20.2541 0.705912 8.42365
1694 1 22.3549 1.21003 8.52841
2219 1 22.1314 0.439927 7.80061
2218 1 23.1132 0.737733 7.58242
2217 1 23.5933 0.0215943 7.93991
1993 1 24.2924 0.866546 8.04376
1994 1 25.0339 0.227009 8.10091
1990 1 25.849 0.875198 7.99493
1977 1 26.7091 1.23409 7.23292
1924 1 26.7098 1.00774 8.47199
2530 1 27.9541 0.61422 7.97861
2529 1 27.6074 1.41599 8.33453
1997 1 29.1507 0.909754 8.21789
2378 1 0.887351 1.57148 7.67527
2399 1 0.0753697 2.37002 7.2697
81 1 1.02294 2.65373 7.89432
82 1 0.476757 2.22638 8.52371
75 1 2.73294 2.17468 8.40554
144 1 1.88943 2.59038 7.26639
76 1 1.84651 1.81659 8.20637
68 1 4.01969 1.48016 7.30876
307 1 3.41457 2.37297 7.41957
79 1 3.96174 1.47857 8.43477
366 1 4.9736 1.82105 7.37325
450 1 5.4964 2.78646 7.22665
308 1 4.31932 2.46473 7.71174
707 1 6.68697 1.77732 7.97732
708 1 6.05253 1.9127 7.33239
452 1 6.03267 2.49795 8.15393
702 1 7.93742 2.50668 7.69503
703 1 8.43884 1.71256 8.27077
767 1 7.19138 2.40027 8.54217
676 1 9.2486 2.41578 7.2551
680 1 9.43371 1.87496 8.16923
1116 1 8.82716 2.83466 8.4557
1017 1 10.9494 1.58027 7.41745
1092 1 11.0517 2.78038 8.02174
1268 1 11.3489 1.80925 8.48661
1006 1 10.0381 2.65175 8.46987
1263 1 12.0921 2.28586 7.75006
1088 1 12.3165 1.43401 8.3637
1022 1 13.5874 1.48566 7.47624
1024 1 14.0304 1.45075 8.45763
1264 1 13.0069 2.30815 8.04982
1016 1 13.9048 2.83611 7.68066
1015 1 14.4666 2.03371 7.76986
1028 1 15.4933 1.8764 7.46974
962 1 15.0476 2.73031 8.2752
1027 1 15.2621 1.60172 8.40391
1365 1 16.5107 2.24387 7.28874
1345 1 16.3031 2.01782 8.24231
1346 1 16.958 1.51089 7.85289
1667 1 18.1273 1.64254 7.72304
1428 1 17.4022 2.84316 7.75074
1325 1 18.7006 2.53551 7.43067
1906 1 19.9023 1.92688 8.2022
1668 1 18.8915 1.4879 7.33905
1905 1 19.6473 2.09704 7.25301
1747 1 20.4138 2.78778 7.58944
1700 1 21.0547 1.94664 8.09416
1979 1 22.0563 1.71973 7.62754
1645 1 22.7593 2.46642 7.31739
1996 1 22.4077 2.3523 8.37416
2214 1 24.1562 1.90722 7.57536
2213 1 24.1677 1.98512 8.50874
2056 1 23.1504 1.67982 7.98107
1971 1 25.1662 1.60999 7.49003
1981 1 25.5008 2.44155 8.43817
2075 1 25.2347 2.7685 7.49132
1968 1 26.1922 2.2031 7.21486
1923 1 26.4712 1.84237 8.19343
2380 1 27.0456 2.6618 8.45705
2379 1 27.2831 2.45854 7.5021
1998 1 28.6593 1.82235 8.33888
2309 1 28.9365 2.78372 7.49501
2400 1 29.5688 2.41499 8.08305
72 1 1.35026 4.25608 8.27306
2472 1 0.272318 3.25489 7.90609
160 1 2.06089 2.9572 8.19064
159 1 2.14779 3.66914 7.56937
548 1 3.32715 4.0636 7.48281
524 1 4.10535 3.47511 7.93541
405 1 3.12459 3.56358 8.49185
523 1 4.99599 3.86725 8.09019
463 1 6.07335 3.80469 7.39947
791 1 7.02072 2.95953 7.53273
877 1 7.01857 4.15999 7.42581
378 1 5.98896 3.44546 8.50953
701 1 7.90194 3.41562 7.41231
784 1 9.38167 3.60184 7.5152
774 1 8.69382 3.85085 8.56263
1105 1 10.64 3.79579 7.32417
1095 1 11.5732 3.20242 7.2731
1091 1 11.5221 3.67212 8.17105
1099 1 13.1087 3.39526 7.70436
1512 1 14.1478 3.97394 7.9349
1511 1 14.8689 3.468 7.57873
1378 1 15.4703 3.96236 8.55813
1436 1 16.5206 3.16122 8.04995
1417 1 15.927 3.84815 7.44296
1518 1 17.4756 3.87932 8.29014
1517 1 18.3129 3.77219 7.92778
1748 1 19.6007 3.23072 7.82036
1669 1 19.0545 3.94499 7.29261
1284 1 19.7519 4.1527 8.53863
1682 1 21.0268 3.89374 7.72652
1681 1 20.6682 3.32772 8.43082
1985 1 21.5926 2.87624 7.55381
1755 1 22.4434 4.17981 7.67615
2059 1 21.8573 3.54862 8.29005
2060 1 22.7952 3.49026 8.55497
2071 1 23.9826 3.34669 8.29482
2093 1 23.4425 4.2488 8.18217
2072 1 24.4235 4.15951 7.92778
2057 1 25.6959 4.15897 7.86513
2076 1 26.139 3.21716 7.72346
2058 1 26.6054 4.16791 8.06581
2061 1 27.5225 3.4677 7.55646
2393 1 28.0944 2.8803 8.29221
2471 1 29.628 3.36093 7.14772
145 1 28.5892 3.77063 7.95949
2324 1 29.6475 4.27628 7.74873
2323 1 0.308136 4.89033 7.93159
140 1 1.03337 5.56914 8.26501
147 1 2.59393 4.94892 7.62324
148 1 1.7386 4.6015 7.35423
136 1 2.10747 5.15897 8.48107
153 1 4.20329 4.54615 7.69964
154 1 3.73303 5.33217 7.44506
533 1 4.9819 5.28359 7.45467
528 1 5.12951 5.23274 8.51658
527 1 5.86491 4.84172 8.08008
878 1 6.91981 4.42009 8.39895
850 1 6.64094 5.3954 7.5567
773 1 8.47325 4.29188 7.76145
444 1 7.63466 5.10008 7.73317
766 1 8.77203 5.38742 7.76703
848 1 9.60352 4.57578 7.77521
847 1 10.0516 5.3581 7.32138
1106 1 10.8821 4.6523 7.59703
787 1 10.9268 5.58779 8.15087
1108 1 12.1669 5.68344 7.3381
1107 1 12.187 5.07636 8.11339
1100 1 12.8035 4.31133 7.53427
1176 1 13.2041 5.31605 7.79653
1020 1 13.1853 4.52866 8.53977
1117 1 14.4306 5.64885 7.96117
1118 1 14.8477 4.74201 8.05685
1426 1 15.8224 4.77571 7.87839
1425 1 16.7162 4.45802 7.58118
1502 1 16.4152 5.55766 7.33733
1042 1 15.8437 5.68616 8.24411
1361 1 17.0621 5.26757 8.26945
1424 1 17.8743 4.31338 7.24008
1439 1 18.1766 4.91269 8.04156
1406 1 18.5466 5.69462 7.32783
1440 1 19.0875 4.80826 8.0874
1685 1 19.865 5.32601 7.48008
1687 1 20.0423 4.29897 7.53017
1746 1 20.8338 4.76822 7.15636
1745 1 20.7544 4.83534 8.08512
1749 1 21.6721 5.69192 7.77292
1756 1 21.8068 4.75272 8.07364
1683 1 22.7743 5.29978 7.74147
2136 1 24.4145 5.44752 7.91352
2004 1 25.4816 5.13783 8.19422
2074 1 25.579 5.68558 7.35995
2048 1 26.6568 5.29427 7.91928
2047 1 27.5081 5.49098 7.60347
2062 1 27.675 4.39312 7.5189
2476 1 28.3618 5.60494 8.05351
146 1 28.5033 4.62173 8.32598
2375 1 29.7177 5.57681 7.14903
2376 1 28.8878 5.0651 7.26436
2461 1 0.719658 6.80709 8.09635
2462 1 0.705975 6.31803 7.23443
470 1 2.81071 5.99818 7.26524
139 1 1.69805 5.79145 7.66751
174 1 2.32605 6.23379 8.28492
231 1 2.52189 7.06641 7.63851
232 1 1.61232 6.81159 7.32055
540 1 3.34701 6.29656 7.9965
519 1 4.20974 6.21214 8.51552
286 1 4.57281 6.48137 7.40347
534 1 5.60504 6.01163 7.47877
609 1 5.49525 6.95454 7.75239
535 1 5.90453 6.0687 8.5058
610 1 6.48165 6.74779 7.70302
560 1 7.47971 6.28266 8.11361
525 1 8.20655 6.32235 7.37713
1184 1 9.75126 6.09194 8.2641
1183 1 9.68042 7.09508 8.41072
858 1 9.09681 6.90413 7.38279
932 1 11.2761 7.04687 7.33048
931 1 11.5295 6.48172 8.04531
1187 1 12.569 7.10846 8.49833
1175 1 13.0004 6.24985 7.75916
1193 1 13.4551 7.10482 8.08258
1041 1 15.2948 6.13579 7.5846
939 1 14.3797 6.63736 7.46031
1253 1 15.007 6.62474 8.45969
1509 1 16.4063 6.7608 8.08428
1429 1 17.4628 6.28386 7.56863
1430 1 18.0229 5.97797 8.24651
1851 1 19.1957 5.89086 8.21241
1831 1 18.5911 6.82285 7.84036
1736 1 19.8691 6.4737 7.60973
1750 1 20.8449 5.84362 7.37191
1803 1 21.3712 6.78937 7.24319
2083 1 20.057 6.13212 8.54621
1809 1 20.5574 7.03576 8.09002
1804 1 22.1972 6.60667 7.69757
2135 1 24.0189 6.34526 7.86282
1814 1 23.2284 7.05245 7.81907
2073 1 24.9296 6.31066 7.19598
2152 1 25.089 6.25619 8.50883
2156 1 26.0921 7.13497 8.35942
2456 1 26.542 7.10907 7.18636
2086 1 26.2017 6.19463 8.17896
2154 1 27.9449 6.63817 7.26415
2153 1 27.1723 6.54484 7.82004
2463 1 29.7144 5.81631 8.21854
2475 1 28.7733 6.2669 7.5569
221 1 0.886077 7.74976 7.26576
311 1 0.516854 8.04046 8.15869
161 1 1.55019 7.78162 8.05774
318 1 3.86377 8.08172 7.67013
539 1 3.43163 7.21281 8.36269
317 1 2.95223 8.13678 7.79375
612 1 4.80487 7.58357 7.23957
619 1 4.46713 7.30173 8.25649
298 1 4.84174 8.39334 7.87623
297 1 5.75823 8.04774 7.70119
876 1 6.93413 7.76902 8.04188
614 1 7.76845 8.20762 7.4945
948 1 8.2845 8.22152 8.31058
875 1 7.70475 7.28668 7.77857
929 1 8.69518 7.22405 8.23071
692 1 9.37824 7.8975 7.63861
691 1 10.2127 7.57238 7.68263
942 1 11.273 8.39129 8.18864
869 1 10.8806 7.43371 8.4343
1244 1 12.0292 8.38991 7.22011
870 1 11.7307 7.5311 8.09479
1274 1 12.7834 7.84637 7.69724
1179 1 13.4842 8.54005 7.43788
1165 1 14.9586 8.2378 7.62272
1344 1 15.4032 7.16332 7.54066
1343 1 15.9705 7.99246 7.55346
1584 1 16.6105 8.0517 8.43202
1824 1 17.958 7.56182 7.27442
1510 1 17.2174 7.24906 7.92477
1587 1 17.1572 8.22499 7.29523
1910 1 18.7316 8.2371 7.91225
1832 1 19.3063 7.30182 8.12793
2147 1 21.2986 7.61152 7.82077
1828 1 20.0812 7.99754 8.04409
1880 1 22.4872 7.50982 7.30328
2225 1 22.2703 8.19344 8.28256
1760 1 22.1611 7.14613 8.5702
2150 1 24.0289 7.75111 7.68182
2143 1 23.38 8.50605 8.31976
2142 1 25.4837 7.24082 7.16552
2221 1 24.9478 7.3938 8.17399
2227 1 25.8841 8.50079 7.80414
238 1 27.907 7.78506 7.33202
2299 1 27.3081 8.44145 7.83275
2300 1 28.0227 8.03062 8.3746
237 1 28.7937 7.56171 7.62588
2408 1 29.8209 7.20711 8.45615
312 1 29.8334 7.76813 7.54738
2289 1 0.474391 9.64279 7.96892
2290 1 1.42249 9.88854 7.84462
63 1 2.67223 9.82447 8.01577
2526 1 1.57601 8.71789 7.66656
55 1 3.52631 9.25786 7.91752
387 1 4.31617 9.79806 7.30485
379 1 5.53756 9.15438 7.68246
629 1 4.68141 9.72285 8.38648
380 1 6.42002 9.5932 7.83255
626 1 7.32261 8.91059 8.27187
613 1 7.46009 9.11867 7.17049
687 1 8.42084 9.22015 7.77898
947 1 9.06132 8.6996 8.51803
688 1 9.39979 9.0852 7.6235
1243 1 11.2599 8.99097 7.26537
700 1 10.2102 9.86013 7.55499
941 1 10.47 8.76839 7.83602
1567 1 12.473 9.43316 7.60674
1004 1 11.7118 9.90092 8.23242
1273 1 12.5681 8.59346 8.33424
1180 1 13.3741 9.31463 8.1457
1321 1 14.428 9.7401 7.4976
1594 1 15.0699 9.67465 8.46593
1593 1 15.4622 8.80406 8.43107
1342 1 16.2806 9.00487 7.77282
1341 1 16.4655 9.89213 7.49822
1912 1 17.4872 8.68815 8.16252
1350 1 17.4381 9.70395 7.98583
1911 1 17.9975 8.93405 7.42346
1892 1 18.9617 9.82607 7.79151
1604 1 19.5871 8.87072 7.9041
2148 1 21.0879 8.58468 7.75937
1900 1 20.1921 9.79864 7.61809
2229 1 21.1133 9.79308 8.13414
1876 1 21.786 9.3021 7.27463
2232 1 22.2206 9.36084 8.26322
2231 1 22.8679 9.12461 7.52087
2205 1 24.1527 9.01624 7.82633
2206 1 25.0224 8.96473 8.24557
2215 1 26.8555 9.95416 7.82668
2484 1 25.868 9.68696 8.14581
2487 1 27.8423 9.40712 7.75241
2284 1 29.4516 9.65267 7.51777
2488 1 28.6775 9.52745 8.23336
2524 1 28.6524 8.67664 7.48812
2523 1 29.4681 8.66733 8.01018
3 1 0.567477 0.545 9.77067
65 1 0.941333 0.156715 8.83083
306 1 1.48983 0.955899 9.47972
11 1 2.45411 0.85128 9.60744
64 1 2.16845 0.0658546 8.82319
73 1 2.94048 0.934045 8.74064
639 1 3.47358 0.670846 9.97974
6 1 3.73461 0.105433 8.84282
77 1 4.0882 1.3663 9.46416
606 1 4.66308 0.804912 8.73429
386 1 5.44309 0.923735 9.44162
385 1 5.61759 0.231942 8.87931
712 1 7.14143 1.33916 8.80568
384 1 6.49957 0.886722 9.85892
389 1 7.2009 0.129116 9.09034
926 1 8.16629 0.0568119 9.47786
715 1 8.99829 0.656165 9.3193
1025 1 10.9261 0.942755 9.16875
1038 1 10.343 0.181096 9.83203
1026 1 11.234 0.00477092 9.16979
1262 1 11.8279 0.737253 8.79644
1592 1 13.081 0.725289 8.76534
1355 1 14.0004 0.66935 9.31585
966 1 13.0653 0.159728 9.72496
1030 1 12.9519 1.27869 9.93064
963 1 15.6987 0.563937 9.4797
1338 1 14.8903 0.65886 8.61378
964 1 15.0391 1.20418 9.49698
1577 1 16.0476 0.694328 8.62831
1357 1 16.7568 0.33763 9.48675
1329 1 18.0892 1.04055 8.6766
1330 1 17.2413 0.623907 8.58308
1358 1 17.7133 0.500317 9.63679
1758 1 19.3332 0.58422 9.00752
1618 1 18.7274 1.04592 9.867
1676 1 20.3369 0.687007 9.62641
1651 1 21.0755 0.480098 8.91104
1901 1 22.4924 1.14804 9.64921
2092 1 22.163 0.216417 9.13683
2238 1 23.1967 0.686787 8.58497
1915 1 22.8646 0.0927839 9.91326
2237 1 23.6024 0.809332 9.46023
1991 1 24.5919 0.968754 9.65225
1999 1 25.134 0.202338 9.20848
1989 1 25.3286 1.33685 8.63096
1935 1 26.1543 0.445197 9.7808
2483 1 26.4856 0.0142061 8.77415
2321 1 27.5146 1.04923 9.30814
2481 1 28.4206 0.984521 8.92714
2270 1 28.6008 0.882393 9.92104
2269 1 29.5407 0.950752 9.61611
2306 1 29.7678 0.0989691 8.81096
2482 1 28.7518 0.0794856 9.13507
157 1 1.37059 2.45902 8.99148
305 1 0.649269 1.49483 9.25355
478 1 2.2558 2.75377 9.30555
80 1 3.79189 2.47238 8.62405
395 1 3.01957 1.81126 9.51528
396 1 3.44782 2.66298 9.62846
454 1 5.09126 2.01201 8.61167
465 1 5.13002 1.82106 9.82521
472 1 4.61749 2.50389 9.3545
451 1 5.82807 2.5458 9.10267
383 1 6.21637 1.65812 9.33187
711 1 7.98205 1.4466 9.23532
950 1 7.42255 2.22237 9.76956
768 1 7.94906 2.76873 8.9968
713 1 9.26099 1.90147 9.25849
695 1 10.2639 1.71075 9.17219
1267 1 11.6814 1.66449 9.35826
1036 1 12.0972 2.49006 9.85153
1035 1 11.6005 2.72598 9.03107
1102 1 13.9474 2.40942 8.79771
1101 1 13.144 1.98384 9.0936
1340 1 13.9624 1.72288 9.66631
1044 1 13.0415 2.84974 9.87324
1339 1 14.649 2.34443 9.64775
1363 1 15.6519 2.5449 9.97819
1432 1 16.8529 1.50163 9.16483
1364 1 15.7749 1.93471 9.25754
1302 1 16.5341 2.56008 9.16195
1367 1 17.6036 2.53581 9.79153
1368 1 17.878 1.60193 9.52385
1431 1 17.3566 2.0912 8.58789
1285 1 18.5473 2.2893 8.6902
1757 1 19.2079 1.55443 9.0228
1606 1 19.8211 1.55255 9.73586
1286 1 18.5915 2.55998 9.58898
1610 1 19.5135 2.64503 8.89761
1605 1 20.4311 1.59557 9.00954
1696 1 20.4242 2.61001 9.89255
1699 1 21.0472 2.50347 8.85833
1693 1 21.6064 1.66186 8.96566
1995 1 22.4728 2.73298 9.21256
2055 1 23.2299 1.66747 8.92937
1902 1 22.8604 2.05241 9.82623
2069 1 23.3768 2.63845 8.85132
1992 1 24.0115 1.73723 9.84817
1982 1 24.9049 2.44442 9.14946
2008 1 25.5804 1.47949 9.92626
2080 1 26.7401 1.91404 9.2002
2079 1 25.9224 2.41673 9.49766
2322 1 27.6121 1.79778 9.83138
2390 1 27.6157 2.74248 9.28787
2243 1 28.5683 1.90879 9.56811
2249 1 29.6955 1.71415 8.81595
2250 1 29.745 2.52858 9.30561
158 1 0.795438 3.01572 9.6349
90 1 0.816514 3.55442 8.70887
132 1 0.030912 3.98154 9.03565
89 1 1.61825 3.54261 9.22231
416 1 2.5961 3.71547 9.5026
545 1 3.92723 3.55463 9.30408
471 1 4.99386 3.0735 8.65819
546 1 4.61145 4.11549 9.01053
543 1 5.35387 3.51978 9.54046
377 1 6.32229 4.03554 9.21603
468 1 6.60336 3.09932 9.61721
531 1 7.65196 3.77221 8.71727
786 1 7.43946 3.66331 9.94971
798 1 8.49471 3.48435 9.86881
1115 1 9.30915 3.31155 9.1304
1005 1 10.2633 2.9498 9.40754
1110 1 10.485 3.721 8.72905
855 1 10.5917 4.06243 9.69848
1058 1 12.0992 3.51388 9.6911
1019 1 12.4741 3.88252 8.63258
1047 1 13.0149 4.02329 9.59799
1031 1 14.0637 4.15767 9.00343
1032 1 13.5501 3.41495 8.69695
1051 1 14.0437 3.36771 9.85335
1437 1 15.1637 3.77212 9.8059
961 1 14.7193 3.28346 8.96917
1377 1 15.7813 3.20767 9.12352
1835 1 16.3039 4.09278 9.56981
1435 1 16.5364 4.02485 8.57339
1295 1 17.7673 3.67986 9.75476
1301 1 17.2757 3.11055 9.0592
1296 1 18.6924 3.55757 9.92322
1294 1 19.6863 3.52047 9.4767
1609 1 18.8062 3.32354 8.81087
1695 1 20.7529 3.58125 9.84553
2067 1 21.6679 4.12989 9.98552
2068 1 21.7055 3.57575 9.29504
1940 1 22.6433 3.68064 9.60994
2070 1 23.6692 2.94887 9.6579
2088 1 23.7132 4.0343 9.52587
2077 1 25.1926 3.44732 8.57842
2012 1 24.6703 3.6789 9.68547
2387 1 25.6997 3.72636 9.43943
2388 1 26.2113 3.50911 8.71079
2389 1 26.8275 3.25596 9.61521
2394 1 28.1245 3.69238 8.85765
131 1 29.2499 3.58857 8.87308
71 1 1.101 4.72324 9.05655
2464 1 0.181261 5.60985 9.0963
83 1 1.30232 5.42359 9.87773
2396 1 1.88995 4.67023 9.71303
226 1 2.80286 5.27529 9.60464
406 1 2.96355 4.48383 8.69619
135 1 2.96071 5.54574 8.59204
485 1 3.40748 4.38994 9.78078
551 1 4.00176 5.1724 9.26964
530 1 5.43783 4.6447 9.50299
529 1 6.15127 5.20611 9.29611
785 1 7.55847 4.4761 9.59025
532 1 7.91495 4.70359 8.62423
790 1 8.44371 5.453 9.09841
776 1 9.67253 4.2982 8.96458
795 1 8.69168 4.34737 9.47924
789 1 9.40421 5.42653 9.37027
775 1 9.92606 5.1839 8.58189
856 1 10.5518 5.01754 9.47953
1109 1 11.1003 4.51253 8.68848
1129 1 11.5498 4.68443 9.72377
1199 1 12.3296 5.53343 9.88289
788 1 11.5882 5.64624 8.87818
1130 1 12.3084 4.9057 9.20205
1111 1 13.5429 5.43297 9.01256
1112 1 13.717 4.90793 9.78047
1446 1 15.6138 5.38571 9.77454
1445 1 15.3043 4.71036 9.19759
1362 1 16.5098 5.07004 9.05562
1520 1 17.5684 5.31046 9.33506
1836 1 17.1991 4.33299 9.27572
1433 1 18.2323 4.75668 9.89853
1434 1 18.1779 4.34824 9.0174
1845 1 19.9884 5.49958 9.65868
1283 1 19.1058 4.53991 9.22212
1379 1 18.7309 5.66114 9.50155
1763 1 21.1356 5.36741 9.89878
1370 1 20.0286 5.06846 8.72145
1369 1 20.5318 4.46181 9.27905
1939 1 22.4288 4.36279 8.9922
1834 1 22.1345 5.05526 9.77339
1833 1 21.5219 4.79535 9.04099
2145 1 22.6285 5.44987 8.88848
2094 1 23.8711 4.79368 8.70407
1761 1 23.2311 4.7986 9.96373
2146 1 23.4728 5.67439 9.16989
2087 1 24.2815 4.79172 9.67093
2078 1 24.9396 4.32817 8.92979
2001 1 25.557 4.66096 9.81484
2151 1 24.7269 5.40789 8.9499
2329 1 26.822 4.66557 9.45864
2003 1 26.0172 4.61073 8.80679
2330 1 27.8 4.44547 9.522
2467 1 27.5759 5.11853 8.7212
2468 1 28.2558 5.47796 9.26067
86 1 29.3895 5.03606 9.65787
85 1 29.5304 4.89502 8.65402
2404 1 0.834358 6.50307 9.63014
230 1 1.83083 6.97412 9.33536
173 1 1.81451 5.93959 9.12326
225 1 2.60303 6.25667 9.71182
552 1 3.59625 6.03349 9.49215
520 1 4.07064 6.91901 9.14915
632 1 3.37661 7.05554 9.85455
536 1 5.17949 6.6025 8.8957
627 1 5.16057 5.76494 9.65486
954 1 6.16697 7.06834 8.73373
871 1 6.82096 6.22999 9.5316
872 1 5.89006 6.46989 9.65678
538 1 7.77899 6.69705 9.57691
930 1 8.3985 6.42479 8.63419
474 1 7.78133 5.72556 9.92116
559 1 7.44978 5.74954 8.891
554 1 9.1738 6.53508 9.47822
842 1 10.7066 6.2952 8.87191
841 1 10.2941 5.99973 9.73383
1276 1 10.2785 7.05159 9.42189
866 1 11.8398 6.59089 9.2067
865 1 12.6075 6.12049 8.74766
1196 1 13.3512 5.85737 9.98553
1194 1 13.6401 6.46895 8.76497
1530 1 14.1175 7.03298 9.67755
1195 1 13.1464 6.73082 9.58039
1596 1 15.3653 7.04092 9.3615
1120 1 14.5718 5.78244 9.05943
1046 1 16.3534 6.82641 9.40173
1045 1 16.7619 6.10277 8.97559
1830 1 17.8868 6.38666 9.38234
1852 1 18.9123 6.49459 8.94474
1846 1 19.9918 6.49443 9.4831
2084 1 20.9885 5.88286 8.59292
1810 1 21.1517 7.04831 8.84872
1817 1 21.8846 5.99363 9.41665
1818 1 22.6722 5.8602 9.95612
1759 1 22.5524 6.86371 9.40827
1813 1 22.9258 6.50256 8.57498
2132 1 24.0903 7.06063 8.59568
2131 1 23.695 6.70929 9.37553
2182 1 24.5633 6.0442 9.98775
2421 1 25.6712 5.78135 9.92476
2157 1 24.5581 7.13214 9.69868
2416 1 26.665 5.93178 9.86384
2155 1 26.2463 6.56744 9.13024
2085 1 27.045 5.97411 8.6421
2406 1 27.018 6.91845 9.96275
2470 1 28.0617 6.4563 8.74497
2469 1 29.0267 6.26591 8.8381
2494 1 28.7586 6.87724 9.63137
2478 1 29.8705 7.10627 9.51544
2477 1 0.668133 7.33469 9.00917
249 1 0.51787 8.20376 9.5138
250 1 1.32194 7.77103 9.78142
162 1 2.08663 8.30713 8.70107
229 1 2.45749 7.30828 8.66288
234 1 2.30209 8.19648 9.87722
310 1 3.11554 8.00578 9.21553
631 1 3.97149 7.78156 9.9208
620 1 4.10444 7.94167 8.93339
541 1 5.04031 7.45029 9.62652
601 1 5.36912 7.8898 8.68559
542 1 4.79676 8.36567 9.53924
953 1 6.26815 8.05252 8.81859
558 1 6.79131 7.45001 9.47779
557 1 7.08598 8.3313 9.18965
397 1 5.84975 8.52092 9.6241
537 1 7.5103 7.17043 8.76001
959 1 8.04334 8.18783 9.45333
960 1 8.50989 7.34255 9.39241
937 1 9.46033 7.7117 9.25441
882 1 11.0116 7.79177 9.39048
881 1 10.3372 8.15523 8.84989
1033 1 12.2604 7.5911 9.62991
1034 1 12.6169 8.46157 9.67467
1188 1 13.2293 7.67915 8.93841
1516 1 14.1078 8.08421 9.43279
1595 1 15.6375 7.4789 8.61918
1254 1 14.4984 7.41557 8.72297
1586 1 15.2972 8.13199 9.32246
1597 1 16.6012 7.86476 9.55326
1503 1 17.5861 7.60485 9.41426
1909 1 18.4808 7.68424 8.59769
1504 1 17.6198 8.54861 9.40961
1514 1 19.1787 7.29816 9.581
1908 1 18.6537 8.25037 9.66702
1822 1 19.5018 7.97218 8.89256
1821 1 20.3479 7.58054 9.28457
1842 1 21.8908 7.46671 9.9152
2226 1 21.6153 8.31899 8.99837
2239 1 22.8765 7.89669 9.87978
2144 1 23.0468 7.73043 8.82497
2081 1 23.786 8.26488 9.48112
2222 1 24.5714 8.18846 8.688
2158 1 25.3645 7.46741 9.19484
2492 1 26.923 8.18826 8.75685
2405 1 26.4994 7.51724 9.36354
2228 1 25.9228 8.33167 8.71074
2490 1 26.0082 8.56162 9.96793
320 1 27.769 7.4344 9.50157
2485 1 28.7144 7.24217 8.58663
2486 1 28.8131 7.86277 9.28806
2407 1 29.7047 8.07029 8.81476
2480 1 0.264832 8.89106 8.77151
314 1 1.53831 9.85486 9.70104
313 1 1.46765 9.05271 9.20801
233 1 2.4818 9.10967 9.73036
56 1 2.99806 9.09746 8.72065
392 1 4.1808 9.66287 9.74796
5 1 3.05968 9.95124 9.4968
309 1 3.64466 8.70922 9.51477
602 1 5.56608 8.87311 8.64036
630 1 4.32744 8.9341 8.77518
327 1 5.15803 9.4498 9.54686
328 1 6.08588 9.63098 9.71207
561 1 6.5587 9.14449 8.83402
562 1 6.96757 9.2002 9.66635
625 1 7.77824 9.21564 9.01541
925 1 8.68849 9.73009 8.75994
716 1 9.40469 9.9027 9.43647
938 1 9.60186 8.68616 9.41449
893 1 8.64669 9.086 9.6043
934 1 10.342 9.57689 8.81005
1037 1 10.2267 9.27887 9.97327
1003 1 12.5733 9.82326 8.65941
1272 1 11.6283 9.04637 9.06312
1590 1 13.5879 8.97547 9.15112
1515 1 14.4927 8.83952 8.92753
1351 1 14.7801 9.78734 9.48902
1352 1 15.548 9.28085 9.55049
1523 1 16.6721 9.22258 9.81395
1583 1 16.4246 8.85514 8.95622
1578 1 16.525 9.86309 8.66278
1546 1 18.4079 9.57629 9.68307
1674 1 18.3196 9.99064 8.69421
1907 1 18.5296 8.70465 8.80194
1673 1 17.5428 9.55596 9.03035
1602 1 19.5937 8.85742 9.4262
1601 1 19.1622 9.4882 8.84864
1827 1 20.3953 8.653 8.62688
2230 1 21.3096 9.28733 8.97676
1680 1 20.7312 9.78635 9.75776
1679 1 20.2557 9.67799 8.93135
2091 1 21.7906 9.69783 9.82479
1929 1 23.8545 9.60537 9.76514
2082 1 22.9965 8.83598 9.57113
2212 1 23.2872 9.75818 8.95112
2211 1 24.2458 9.48212 8.78116
2000 1 25.6255 9.43304 9.26883
1928 1 26.5958 9.26317 9.57407
2491 1 26.9328 9.09997 8.57987
2320 1 27.5005 9.96239 9.70001
244 1 27.7023 9.99137 8.70326
243 1 27.9045 9.10644 8.90389
2479 1 29.3994 9.08945 8.90108
2418 1 29.1345 8.92402 9.92692
247 1 29.766 9.7111 9.79544
ITEM: TIMESTEP
7000
ITEM: NUMBER OF ATOMS
2532
ITEM: BOX BOUNDS pp pp pp
0.0000000000000000e+00 3.0000000000000000e+01
0.0000000000000000e+00 1.0000000000000000e+01
0.0000000000000000e+00 1.0000000000000000e+01
ITEM: ATOMS id type x y z
4 1 0.920956 0.2429 0.581955
7 1 2.20157 1.08536 1.36107
8 1 1.96332 0.705689 0.490619
403 1 4.20049 1.27516 0.912194
640 1 3.17228 0.495239 0.894141
376 1 4.29265 0.12474 0.817608
461 1 5.32725 0.130897 0.796728
404 1 5.13263 1.26594 0.804713
375 1 4.75573 0.539834 0.0877421
944 1 6.53355 0.177301 0.546187
705 1 6.65056 1.17028 0.91475
706 1 7.41049 0.588236 1.15481
949 1 7.48803 1.38005 0.185131
943 1 7.36774 0.319626 0.0566959
720 1 8.37566 0.858413 0.495818
719 1 9.20901 0.380639 0.413144
1039 1 9.71977 1.21452 0.0113553
1040 1 10.6684 1.3078 0.152929
890 1 10.1557 0.805425 0.996683
1209 1 11.5877 0.223273 0.172211
974 1 12.1223 1.08437 0.464356
662 1 11.6714 0.531578 1.36851
973 1 12.0882 1.39865 1.36273
965 1 13.4331 0.341111 0.593619
1029 1 13.0945 1.25196 0.879213
1289 1 14.1108 0.969232 1.39705
1356 1 14.3765 0.550444 0.21903
1211 1 15.1606 0.0470112 1.07713
1282 1 15.8071 0.944705 0.591157
1543 1 17.1795 1.07749 0.298736
1298 1 17.6942 1.26793 1.25001
1617 1 18.2294 0.695245 0.652348
1544 1 17.3298 0.135003 0.517862
1843 1 19.2481 0.131842 0.146407
1613 1 19.2863 0.424957 1.14334
1614 1 19.3744 1.3405 1.10314
2065 1 20.2731 0.52403 0.70875
2066 1 21.1492 0.060446 0.685784
1675 1 21.0073 1.12348 0.241233
1916 1 22.3268 0.248764 0.704744
1612 1 21.5258 1.24052 1.23739
2009 1 23.2435 1.06201 0.404799
2236 1 23.954 0.549306 1.01166
2235 1 24.5784 1.31382 0.935537
1988 1 25.4645 0.867309 0.714828
1987 1 26.396 0.670564 0.980175
1936 1 26.8386 1.06345 0.13813
2496 1 27.6538 0.697139 0.649448
2495 1 28.2165 0.087288 1.22455
2246 1 29.4209 1.21432 0.5292
2245 1 28.7313 1.38801 1.17267
2265 1 29.1713 0.211125 0.558599
91 1 0.677452 2.08088 0.203827
12 1 2.13241 1.56499 0.0161746
14 1 1.51265 1.6919 1.06149
13 1 1.9455 2.55602 1.03936
477 1 2.52898 2.60166 0.228985
96 1 3.0963 2.51444 1.15772
330 1 4.28556 2.26727 1.14755
95 1 3.01623 1.6308 0.763675
78 1 4.09944 2.03582 0.18992
475 1 5.61278 2.28542 1.07241
466 1 5.09486 2.71118 0.265629
476 1 6.02962 1.92196 0.324387
651 1 6.75267 2.54081 0.796357
718 1 8.3922 2.69388 0.525547
731 1 8.00569 1.65143 1.06639
717 1 9.00554 2.16159 1.06225
733 1 9.68829 2.41101 0.0766313
714 1 8.80169 1.80531 0.0354551
800 1 10.7294 2.71237 0.566941
664 1 10.5827 1.76046 1.19598
969 1 12.5519 2.03461 0.63682
970 1 11.6128 2.089 0.699123
647 1 14.0331 1.9637 0.708412
1281 1 14.9661 1.43631 0.516221
1307 1 16.4236 1.92127 0.176055
1297 1 16.731 1.67253 1.26866
1308 1 15.7959 2.14199 0.877399
1461 1 16.7372 2.64578 0.872427
1387 1 18.5402 1.75157 0.582153
1388 1 17.7213 2.21315 0.784669
1384 1 19.1819 2.607 1.14467
1621 1 20.2336 1.81109 0.629645
1616 1 21.1963 2.48328 0.963709
1703 1 21.6035 1.93275 0.0676201
1704 1 22.2583 1.52837 0.656227
2010 1 23.4776 1.44279 1.22181
1678 1 24.0406 2.34429 0.781885
1934 1 22.9797 2.57725 0.679224
1677 1 24.6691 2.65207 1.37593
2007 1 25.6932 1.96405 0.773718
2023 1 24.8397 2.54431 0.120945
2253 1 26.6679 2.38629 0.324989
2254 1 27.0854 1.7419 0.915388
2248 1 28.0285 2.30889 0.677541
92 1 29.9238 2.65287 0.255721
16 1 29.734 2.04937 1.09815
2244 1 29.0769 2.14596 0.341641
2411 1 0.244093 4.11259 0.0813262
2395 1 1.23603 4.08695 0.110433
2397 1 0.855094 2.98649 0.782189
163 1 2.048 3.43629 0.467741
98 1 2.28779 3.4768 1.42156
415 1 3.13387 3.59927 0.363196
393 1 3.69835 3.37024 1.34097
394 1 4.00185 3.02032 0.445131
329 1 4.71668 3.01666 1.40479
544 1 4.97859 3.66575 0.456172
459 1 5.88878 4.2631 0.553609
417 1 6.01354 3.69308 1.38425
467 1 6.23032 3.32013 0.474768
722 1 7.76249 3.8237 1.35271
797 1 8.40077 4.17101 0.53141
734 1 9.70203 3.01372 0.913534
793 1 8.82163 3.42552 1.05111
859 1 9.54902 4.07696 0.166984
799 1 10.8381 3.65605 0.723116
1057 1 12.2987 3.98508 0.55662
740 1 12.075 3.2064 1.34699
1043 1 13.1929 2.9815 0.797226
1053 1 13.9468 3.59418 1.29111
1062 1 13.0552 4.02084 1.36053
1048 1 13.5244 4.17605 0.423222
1052 1 14.4839 2.91985 0.587162
1065 1 15.1611 4.0065 1.14723
1450 1 15.5747 3.11037 1.01501
1462 1 16.4196 3.24046 0.167882
1776 1 17.0745 3.90972 0.497551
1396 1 18.1561 3.17849 1.04504
1293 1 19.3956 2.93526 0.184696
1708 1 19.5245 3.8151 0.865075
1707 1 20.2984 3.22501 0.878495
1933 1 22.2393 3.04081 0.451279
1762 1 22.8013 4.05269 0.549382
1780 1 21.7067 3.54248 1.27461
2006 1 24.1359 3.35664 0.729943
2024 1 25.5933 2.94088 0.625721
2011 1 25.0174 4.01356 0.550822
2410 1 26.3431 4.07694 0.217528
2346 1 26.5591 3.28713 0.935405
2018 1 26.0311 4.2525 1.20956
2313 1 27.4623 3.20775 0.538457
2409 1 27.261 4.26686 0.480948
2314 1 28.1039 3.58146 0.0623796
2345 1 27.2344 3.69913 1.42654
2318 1 29.2125 4.15804 0.122081
2317 1 29.0215 3.59102 0.834876
2398 1 29.9609 3.08196 1.12394
2331 1 29.9618 4.11784 1.24296
2412 1 0.459472 5.02119 0.213377
88 1 1.168 5.00484 1.06344
164 1 2.38923 4.32138 0.70007
84 1 2.05741 5.4482 0.375957
156 1 3.18929 5.44886 0.549161
155 1 3.41967 4.53338 0.829917
481 1 4.27829 5.46443 0.494057
401 1 5.19831 4.76291 1.38316
628 1 5.46433 5.34849 0.422871
486 1 4.32882 4.36343 0.0722679
721 1 7.05217 4.36766 1.05294
549 1 6.52656 5.31456 1.32039
550 1 6.79408 5.44495 0.429602
460 1 6.69655 4.37391 0.122987
473 1 7.85376 5.06172 0.614133
867 1 8.81944 5.63849 1.21908
796 1 8.83958 5.00849 0.181382
802 1 11.2725 5.64564 0.153316
1186 1 10.6486 5.45414 0.996234
860 1 10.0821 4.80955 0.435317
1200 1 12.77 4.8561 0.349646
1221 1 11.7622 5.11488 0.877931
1114 1 13.7508 5.19446 1.0491
992 1 14.8625 5.05871 0.84774
1438 1 14.5751 4.36308 0.175927
1372 1 16.7503 4.93379 0.202173
991 1 15.8391 4.84353 0.835822
1452 1 16.9453 5.47905 1.1489
1451 1 17.0021 4.50104 1.24466
1519 1 17.5252 5.53356 0.212147
1775 1 17.8977 4.34025 0.840225
1380 1 18.9808 5.45761 0.407008
1698 1 19.8677 4.94739 1.10478
1697 1 20.1973 4.58379 0.330042
1691 1 21.1922 4.3663 1.01585
1692 1 20.906 5.25461 0.961244
2013 1 22.2359 4.60997 1.3061
1767 1 22.4351 5.65108 1.05522
2005 1 23.9314 4.31817 0.622741
2106 1 23.1736 4.99488 1.09733
2104 1 24.1639 4.9951 1.32555
2017 1 25.2275 4.74929 1.32493
2002 1 24.9453 5.19778 0.390779
2422 1 26.0243 5.28155 0.583811
2328 1 28.2547 4.37581 1.17544
2460 1 27.3432 4.76796 1.30669
2392 1 27.6387 5.43861 0.011453
2391 1 28.45 5.18617 0.395345
2332 1 29.6522 4.98197 0.880198
87 1 0.734329 5.82368 1.29223
2403 1 0.294975 6.25072 0.377124
152 1 0.727491 7.1043 0.463328
171 1 1.45994 6.31658 0.580538
175 1 2.46323 5.9852 1.14627
172 1 2.10658 6.90453 0.361562
176 1 3.11285 6.58293 0.666847
482 1 4.3155 6.41751 0.423368
487 1 5.39241 6.8319 0.647182
488 1 5.92981 6.14124 0.956042
563 1 6.75259 6.92434 0.464517
810 1 7.62667 6.48302 0.684725
868 1 8.62172 6.25429 0.482759
863 1 9.57652 5.82942 0.420707
806 1 9.23407 6.89259 1.25132
553 1 9.39222 6.92866 0.272496
864 1 10.2844 6.41686 0.698458
1123 1 10.9808 6.94884 1.16606
955 1 11.2903 6.81208 0.0582548
801 1 11.4613 6.15238 0.997838
956 1 12.2423 6.51864 0.272697
1143 1 13.0816 6.51451 1.1971
1529 1 13.9897 6.93647 0.589073
1113 1 14.1884 6.00367 1.25306
1119 1 14.6376 5.8831 0.0121211
1443 1 15.5128 5.93959 0.794556
1218 1 15.182 6.74932 0.380686
1131 1 14.9245 7.02713 1.33979
1444 1 16.3241 6.46541 0.813372
1371 1 16.5923 5.86896 0.00124241
1442 1 17.3896 6.58232 1.17378
1441 1 18.2333 6.18842 0.775018
1829 1 17.4826 6.76026 0.143723
1777 1 19.7256 6.00229 1.09235
1837 1 19.8659 7.07524 0.451058
1513 1 19.0895 6.46651 0.0283555
1840 1 21.2978 6.03299 1.39866
1839 1 21.2274 6.99659 1.14329
1764 1 20.5162 5.98595 0.39128
1841 1 21.6328 6.61761 0.280728
2105 1 23.4857 5.75111 0.45732
1849 1 23.0952 6.76323 0.870987
2096 1 24.2406 6.13289 1.24361
2181 1 25.0991 6.56426 0.720463
2415 1 27.0737 6.21827 0.676198
2185 1 25.9499 7.11742 0.195422
2186 1 26.1096 6.6477 1.00286
2401 1 28.0156 5.77239 1.30759
2423 1 27.6914 7.02373 0.759855
2493 1 28.1381 6.33246 0.0480876
177 1 28.746 6.61519 0.795408
2473 1 29.4165 5.96864 0.922978
2474 1 29.0977 6.04195 0.0190217
178 1 29.5733 7.01169 0.530682
151 1 1.23231 7.42227 1.2124
2504 1 0.708497 8.15765 0.501593
242 1 1.40601 8.4348 1.16918
246 1 2.21031 7.87342 0.822078
634 1 3.12287 8.44044 0.40536
633 1 3.25422 7.56071 0.898494
257 1 4.44949 7.32871 0.803938
258 1 4.28661 8.05211 1.42412
638 1 5.22064 8.25499 0.513505
398 1 6.03733 7.68084 0.0778177
381 1 6.92645 8.30025 0.176676
564 1 6.61207 7.7201 0.914113
958 1 8.37371 7.2508 0.78813
957 1 7.63955 7.54835 0.148706
657 1 7.81256 8.14066 0.929425
809 1 7.44798 7.24486 1.26196
902 1 9.38805 7.83668 1.09944
894 1 8.90141 8.20901 0.0631655
952 1 10.5179 7.99536 1.23091
1275 1 10.2358 7.80453 0.0537021
1280 1 11.5628 7.71177 0.639793
1279 1 11.5348 8.55893 1.07525
1354 1 13.0256 7.87271 0.737393
1353 1 13.9241 8.23598 0.846515
1217 1 14.8452 7.63317 0.442797
1232 1 14.8636 8.28901 1.33527
1521 1 15.8638 7.5493 1.09577
1598 1 16.7064 7.32776 0.348993
1525 1 16.5638 8.30301 1.06701
1585 1 15.8058 8.04536 0.0344021
1447 1 18.3925 7.37538 0.280266
1448 1 18.1286 7.28777 1.23779
1599 1 18.4719 8.18904 1.34457
1528 1 17.8709 8.25039 0.429111
1600 1 19.1828 8.03571 0.740358
1913 1 20.4451 7.81617 1.14471
1917 1 20.1017 8.20269 0.224061
1838 1 20.7879 7.21415 0.127751
1766 1 21.5587 8.23849 1.09642
1765 1 21.9981 8.43971 0.238578
1850 1 22.9289 7.5513 1.33369
2240 1 23.686 7.52515 0.127256
2159 1 23.6339 8.46204 0.645688
2160 1 24.3421 7.85739 0.870421
2163 1 25.1365 8.06327 0.164002
2315 1 25.8121 7.7836 1.23027
2489 1 26.4783 8.0104 0.590036
2424 1 26.9055 7.28067 1.25758
272 1 27.5958 8.01165 1.03278
267 1 28.394 8.00353 0.214618
319 1 27.2827 8.16594 0.00125054
268 1 28.9945 7.81163 1.03401
2503 1 29.9907 8.10141 1.07359
2417 1 29.55 8.11902 0.159967
240 1 0.0295444 9.88971 1.18265
241 1 0.616462 8.99122 1.05901
248 1 0.59796 9.32714 0.0350132
9 1 2.67531 9.62894 0.502343
245 1 2.29249 8.76394 1.08687
322 1 1.57374 9.50562 0.816347
321 1 1.50656 8.79799 0.215471
10 1 3.23611 9.27855 1.1725
462 1 5.6352 9.23487 0.999502
391 1 4.51619 9.09359 0.360495
573 1 4.35816 9.34205 1.36362
382 1 6.6099 9.09707 0.630609
891 1 7.52048 9.21592 1.06777
658 1 8.38166 8.7878 1.41346
650 1 8.5148 9.63279 0.721287
892 1 7.91869 8.89455 0.220921
649 1 9.22012 9.05264 0.435687
883 1 9.83617 9.77632 1.08981
1210 1 10.9838 9.74091 0.724635
951 1 10.4061 8.88465 0.985688
1203 1 12.8538 8.8191 0.881911
1259 1 12.2477 9.73712 1.0435
1260 1 12.2289 9.42505 0.154397
1271 1 11.435 8.6245 0.00744192
1204 1 13.6089 9.24403 1.33534
1589 1 13.7218 9.25543 0.056152
1347 1 15.3951 9.11101 0.659643
1348 1 14.6712 8.67398 0.188742
1212 1 14.489 9.48554 0.767329
1524 1 16.2902 9.94762 0.353018
1291 1 16.9809 9.61236 1.39138
1527 1 17.628 9.12672 0.184609
1844 1 19.8364 9.46251 0.415508
1545 1 18.7899 9.03922 0.378214
1847 1 19.063 9.44691 1.32229
1918 1 20.8534 8.85554 0.303456
1914 1 20.1014 8.71442 1.07694
2234 1 21.8457 9.29857 1.14887
2233 1 22.6515 9.29973 0.484588
1857 1 22.8493 9.83743 1.3818
1930 1 23.7293 9.44366 0.734098
1942 1 24.9717 9.78643 0.0428837
2164 1 24.5442 8.8288 0.279486
2316 1 25.6192 8.72709 1.06754
2319 1 26.9049 9.95814 0.418349
1927 1 26.7424 9.01372 0.575812
1941 1 25.7296 9.71866 0.666153
271 1 27.9561 8.92926 0.788357
2266 1 28.3567 9.91983 0.162935
239 1 29.7057 9.11098 0.833549
256 1 0.677253 0.461589 1.71929
119 1 0.692168 1.33647 2.10438
120 1 1.65467 1.08911 2.29835
19 1 1.63719 0.152515 1.70742
574 1 3.86666 0.120996 1.75447
266 1 3.00238 0.517262 2.35276
399 1 5.07251 0.022669 1.83753
412 1 5.63534 1.03903 2.45162
346 1 4.78366 1.05167 1.83743
400 1 6.00268 0.327812 1.55452
337 1 6.83307 0.927904 2.13348
578 1 6.29756 0.240786 2.61889
646 1 8.37814 0.75802 1.56093
568 1 7.72893 0.417418 2.39268
900 1 8.89918 0.372347 2.55972
741 1 9.74651 0.510295 2.12365
645 1 9.09497 1.37398 1.74889
661 1 11.2296 1.22146 1.84352
889 1 10.6861 0.264101 1.55697
655 1 10.625 0.595053 2.59204
987 1 11.5627 0.356806 2.31974
976 1 12.5403 0.763322 2.00593
967 1 13.9598 0.247218 2.31956
1288 1 14.9345 0.5788 1.92107
1287 1 15.7351 1.1157 1.69485
1555 1 16.5995 0.979613 2.32306
1565 1 16.9095 0.0372189 2.42815
1292 1 16.2858 0.184809 1.56467
1566 1 17.5123 0.33297 1.77033
1607 1 19.5012 0.925596 2.16397
1608 1 18.5772 1.19676 1.90442
1626 1 20.119 0.201607 1.65022
1611 1 21.1537 0.922463 2.03528
1622 1 20.3866 1.33507 1.45476
1882 1 20.3518 0.378226 2.76164
1858 1 22.2531 0.425215 1.83858
2172 1 23.2403 0.672362 2.01603
2171 1 23.9396 0.0579653 2.20041
2184 1 23.0404 0.0351176 2.84339
2161 1 24.5508 0.733382 1.80603
2019 1 25.6206 0.227609 1.82656
2020 1 25.3172 0.642289 2.60776
2261 1 26.7391 1.30296 1.82568
2262 1 25.8376 1.19987 1.64496
2271 1 26.9818 0.0946763 2.40039
2272 1 26.1069 0.00578153 2.82375
2333 1 26.4495 0.912318 2.76389
2349 1 27.7528 1.34077 1.5074
2350 1 27.8727 0.80727 2.32609
255 1 29.9035 0.960874 1.52553
288 1 29.1274 0.844677 2.32311
28 1 0.717588 2.27759 1.59888
2260 1 2.74564 1.93367 1.98938
37 1 1.76176 2.1494 2.29709
2259 1 3.58354 1.5885 1.77422
413 1 3.68093 2.52019 2.06969
345 1 5.00283 1.9164 1.80809
411 1 6.01027 1.45514 1.66718
333 1 5.82902 2.57737 2.00075
334 1 6.44261 2.53202 2.68659
652 1 6.93062 2.03835 1.56746
732 1 8.01064 2.50908 1.45081
816 1 7.66289 1.65409 2.32157
815 1 7.5589 2.59965 2.39591
659 1 8.58125 2.70551 2.38286
730 1 9.51525 2.42577 2.63524
779 1 11.3221 2.419 1.68097
729 1 10.1209 2.76779 1.94872
780 1 10.9219 2.05719 2.49991
663 1 10.0718 1.66018 2.01603
739 1 12.4728 2.34683 1.62054
908 1 12.1759 1.74911 2.56733
977 1 11.8135 2.72477 2.60306
648 1 13.7111 2.29062 1.52735
989 1 13.2781 1.77129 2.38104
990 1 14.1743 1.68065 2.75643
1067 1 12.8709 2.66054 2.78263
1050 1 13.8427 2.68953 2.44284
1290 1 14.5906 1.7843 1.5937
972 1 15.1944 1.62897 2.49826
971 1 15.3918 2.5082 2.57939
1299 1 16.2431 2.01048 2.34205
1455 1 16.9414 2.82396 1.92889
1300 1 16.9211 2.4542 2.8246
1556 1 17.3008 1.72161 2.07675
1395 1 18.0818 2.53174 1.77518
1306 1 19.0214 2.03697 2.43005
1632 1 20.0757 1.82315 2.42539
1706 1 21.0513 1.81753 2.84037
1615 1 21.0578 2.18941 1.85152
1303 1 20.2141 2.5058 1.67868
1374 1 22.0381 1.51264 2.46035
1937 1 21.911 2.54602 2.34397
1938 1 22.4181 2.29866 1.5826
1373 1 22.9686 1.63101 2.16871
1629 1 23.4684 2.68971 1.59086
2162 1 24.7661 1.59725 2.08677
1932 1 25.2709 2.48321 2.22109
2015 1 26.2268 2.28299 1.60217
2353 1 26.2023 2.69551 2.62842
2339 1 25.7223 1.73987 2.70988
2016 1 27.1617 2.5193 1.65541
2247 1 28.1531 2.25534 1.67335
2288 1 27.3352 1.83324 2.49099
15 1 29.3841 1.82485 1.96144
2342 1 28.7734 2.69768 2.38978
2341 1 29.0334 2.68766 1.43578
27 1 1.26458 3.02054 1.77535
2432 1 0.346303 4.12203 2.47035
105 1 2.84941 3.24395 2.57503
106 1 2.03378 3.7604 2.64857
97 1 2.97645 4.08098 1.79364
498 1 4.171 3.52458 2.35111
484 1 5.20619 2.86145 2.81131
402 1 5.06841 3.92903 1.806
332 1 5.93869 3.98861 2.85146
418 1 6.69889 3.06652 1.68748
746 1 7.9619 3.45496 2.55044
794 1 9.28042 4.225 1.48268
817 1 8.64201 4.22649 2.80364
660 1 9.29424 3.32744 2.09257
818 1 9.58916 4.25091 2.79504
723 1 10.265 3.76289 2.01794
744 1 10.8908 3.20365 2.57357
725 1 11.3248 3.9834 2.15775
1073 1 12.752 4.2517 2.31106
1049 1 13.997 3.62885 2.53958
1061 1 13.1484 3.21169 1.89971
1054 1 14.6928 3.15454 1.57124
1066 1 15.3353 3.76297 2.06027
1449 1 16.2564 3.55336 1.5012
1375 1 16.2844 3.35666 2.49327
1456 1 17.3345 3.58702 1.54803
1479 1 17.1495 4.16996 2.38489
1399 1 17.9895 3.3812 2.47115
1383 1 19.435 3.16106 1.88119
1459 1 19.4733 4.20347 1.81126
1386 1 19.3994 3.69558 2.83065
1460 1 20.3308 3.97027 1.52364
1304 1 20.5603 3.16225 2.3327
1874 1 22.8043 2.9543 2.74289
1779 1 21.4379 4.06005 2.03875
2034 1 22.8496 3.66407 1.87192
2033 1 22.27 3.84456 2.63007
2098 1 23.8046 3.89063 1.62581
2097 1 23.5822 3.99502 2.54389
1630 1 24.0717 2.94223 2.34681
2021 1 25.5479 3.37393 1.64312
2099 1 24.6989 4.07895 2.01378
2022 1 26.0024 3.94746 2.27196
2336 1 26.9573 3.7785 2.45862
2326 1 28.2827 3.47483 1.59406
2051 1 27.6727 2.96327 2.36274
2325 1 28.2211 3.77369 2.47859
2430 1 29.697 3.25702 2.10432
2429 1 29.1744 4.09648 2.10334
100 1 1.01454 4.86332 2.0894
99 1 0.113052 5.0553 1.86463
165 1 2.2466 4.78766 2.4951
166 1 2.3899 5.09652 1.56432
479 1 3.90828 4.71476 2.75052
507 1 4.12703 4.84461 1.75161
110 1 3.11004 5.41978 2.46289
508 1 4.67971 5.4351 2.25399
422 1 4.83027 4.40318 2.65644
635 1 5.72844 5.38206 2.06831
430 1 6.77553 5.19087 2.3445
636 1 6.02243 4.50836 1.94152
727 1 7.55284 5.34428 1.49929
429 1 7.42656 4.43208 2.22026
728 1 8.37703 4.81638 1.52534
807 1 9.85269 5.06984 1.83127
1136 1 9.13565 5.32158 2.65353
724 1 10.5835 4.45956 1.44588
1185 1 11.1888 5.52715 1.79282
808 1 10.5064 4.78393 2.46627
726 1 11.6572 4.69085 2.59616
1222 1 12.1575 5.13042 1.74404
1197 1 14.025 4.7874 2.65834
1198 1 14.246 4.63925 1.75521
1138 1 12.9105 5.64396 2.71171
1465 1 15.0679 5.27637 1.97055
1471 1 15.9532 5.61809 1.59313
1472 1 16.6357 5.29849 2.20852
1457 1 15.7871 4.85088 2.57642
1533 1 17.866 5.27138 1.52911
1534 1 17.5691 5.09564 2.32576
1470 1 18.5001 5.69335 2.63615
1469 1 19.1203 5.41572 1.9758
1728 1 18.6048 4.50501 2.16625
1711 1 21.1975 4.96777 1.85798
1393 1 20.342 4.72435 2.37239
2014 1 22.8032 4.65904 2.05994
1712 1 21.9892 5.39169 2.16842
2103 1 23.8653 4.99458 2.27503
2110 1 24.9876 5.07327 2.33363
2459 1 27.0628 5.25144 2.03398
2090 1 26.1105 5.709 1.55764
2109 1 25.9459 5.02483 2.48528
2327 1 28.1572 4.78877 2.00624
2402 1 28.8418 5.66518 1.87847
186 1 29.4131 4.84944 2.75852
170 1 0.446583 6.84106 1.47358
2425 1 1.28372 5.88089 2.19853
169 1 0.326898 6.26262 2.23364
2426 1 1.64397 6.53594 1.58181
168 1 2.60714 7.1259 1.6313
263 1 2.1878 6.31648 2.63398
182 1 3.71578 6.8594 1.48345
109 1 2.99161 6.24867 1.96109
181 1 3.98088 5.96206 1.42941
492 1 4.17378 6.50762 2.38708
493 1 5.24641 6.25839 1.73349
494 1 5.17461 6.33738 2.70673
491 1 4.73891 7.12248 1.86754
495 1 6.19721 6.97515 2.63476
496 1 6.43717 6.05525 2.59827
813 1 6.89829 6.3666 1.44735
874 1 8.39054 5.79926 2.14503
814 1 7.48333 6.27319 2.20146
873 1 8.23282 6.68705 1.70406
805 1 9.24085 6.24018 1.97349
862 1 10.3237 6.39933 1.81759
1278 1 11.3185 6.39729 2.14444
861 1 10.2617 6.85383 2.69897
1128 1 12.4379 6.67 2.09479
823 1 11.908 5.91785 2.80719
1144 1 13.2868 5.71637 1.76899
1127 1 13.3941 6.63581 2.33062
1466 1 15.1652 6.2372 1.98734
1215 1 14.391 6.96314 2.62316
1147 1 14.3143 5.82038 2.5954
1141 1 16.0543 6.634 2.12793
1482 1 17.1252 6.18944 2.39312
1772 1 17.4777 7.12908 2.12794
1771 1 18.0694 6.40388 1.8816
1484 1 19.0772 6.54137 1.83565
1770 1 19.7224 6.1308 2.54199
1483 1 18.9217 6.75472 2.76041
1769 1 20.5284 6.65829 2.58744
1778 1 20.3774 5.72443 1.76053
2032 1 22.7151 6.52741 2.44007
1784 1 22.1928 6.67988 1.49354
1783 1 21.6075 6.6957 2.27517
1768 1 23.1426 5.78944 1.74697
2166 1 23.5055 7.11531 2.57695
2165 1 23.9255 7.12452 1.70688
2089 1 25.4939 5.99094 2.26536
2095 1 24.3413 6.14958 2.27711
2420 1 26.2755 6.79771 2.01422
2419 1 27.1251 6.32647 1.82359
188 1 28.3696 6.79513 2.0898
2500 1 27.5612 6.85597 2.78665
2357 1 27.7765 5.84888 2.47712
187 1 29.2245 6.9144 1.66164
208 1 29.3967 5.94375 2.77057
251 1 1.24076 7.43993 2.3262
253 1 0.378139 7.91904 2.78569
259 1 0.570161 8.38162 1.85186
252 1 1.95289 7.86296 1.83792
264 1 2.36488 7.2151 2.64764
167 1 2.95115 7.90955 2.04849
576 1 3.92597 7.63919 2.51216
637 1 5.28549 8.37906 1.55244
489 1 5.69579 7.43778 1.64513
570 1 4.95615 7.66556 2.7745
579 1 6.51172 8.48369 1.48746
580 1 6.91231 7.76988 1.96818
490 1 5.85718 8.02979 2.40018
555 1 8.27314 7.77289 1.7933
820 1 7.62915 7.41368 2.63052
501 1 8.1862 8.20312 2.84542
556 1 8.83201 7.24844 2.44809
880 1 9.73747 7.42849 2.08314
879 1 10.4288 7.9394 2.46058
1124 1 11.2164 7.50741 1.84673
887 1 11.0765 8.50765 2.05441
1202 1 12.185 7.80566 1.67035
1270 1 11.6933 8.00918 2.73772
1151 1 12.7982 8.49689 2.8424
1201 1 13.1228 7.6529 1.85002
1132 1 14.0873 7.41846 1.6066
1126 1 13.9283 8.52296 1.96761
1231 1 14.9842 8.11867 2.28485
1522 1 16.7073 7.25532 1.45197
1360 1 15.9577 7.77347 2.10476
1453 1 16.923 7.91492 2.68
1526 1 17.3924 7.94568 1.49936
1551 1 18.0066 8.39738 2.63522
1532 1 19.8359 7.51811 2.07604
1552 1 18.6044 7.62826 2.33352
1531 1 20.1171 8.39118 2.36172
1854 1 20.9117 7.50701 2.05317
2173 1 21.9888 7.97659 2.10922
2174 1 22.8525 8.12144 2.37399
2170 1 24.1051 8.06693 1.95522
2101 1 25.0497 7.21269 2.81966
2501 1 25.1491 7.2044 1.79242
2502 1 25.0839 8.18134 1.93722
2258 1 26.8993 8.33211 1.88717
2257 1 26.0827 8.00574 2.26868
2510 1 27.7125 7.66906 2.10595
2434 1 27.1453 8.07831 2.84633
254 1 29.9074 7.53968 2.04297
2509 1 28.672 7.86672 2.15584
2356 1 29.0573 7.159 2.79276
22 1 0.889125 9.72847 2.77431
20 1 1.21892 9.37155 1.88158
23 1 2.19759 8.84178 2.02883
265 1 2.59591 9.67443 2.14285
17 1 3.47607 8.83561 2.1617
18 1 3.86009 9.55748 2.61581
572 1 4.61214 8.78957 2.31441
336 1 6.00056 9.36718 2.03357
335 1 6.89853 9.74227 1.8886
326 1 6.74398 8.59875 2.51583
325 1 7.58239 8.68803 2.04683
567 1 8.03049 9.59367 1.96264
884 1 8.98173 9.92013 1.60896
901 1 9.51867 8.70979 1.43334
896 1 9.02418 9.34042 2.54017
888 1 11.308 9.44369 1.73737
885 1 10.2244 9.36276 2.21421
1540 1 11.9799 9.42957 2.46984
1539 1 12.3335 8.86648 1.75207
975 1 12.9954 9.94829 1.86467
1125 1 13.5584 9.2823 2.38484
1318 1 15.0582 9.99504 2.70882
1538 1 14.6154 9.3782 1.89631
1537 1 14.4701 8.97607 2.76528
1359 1 15.7829 8.62181 1.67413
1865 1 17.0765 8.92393 2.29179
1569 1 15.9146 9.40228 2.35867
1866 1 17.8563 9.05658 1.732
1870 1 18.4344 9.85621 2.31479
1869 1 19.4123 9.70788 2.41756
1848 1 19.0217 8.82361 2.006
2179 1 21.1588 8.73298 1.86504
1625 1 20.2011 9.27395 1.91609
1919 1 20.6923 9.23347 2.83298
1920 1 21.2285 9.78858 2.29331
2180 1 21.5184 8.75338 2.73634
2167 1 22.7612 8.66472 1.46355
2168 1 22.2828 9.22441 2.09101
1862 1 22.0909 9.94726 2.83793
2188 1 23.6291 9.16804 1.72444
2178 1 24.0204 8.90311 2.74447
2187 1 24.5596 9.1959 1.57283
1925 1 25.0101 9.44621 2.55262
2263 1 26.5295 9.68558 1.47876
2264 1 25.827 9.25174 2.01905
2506 1 27.0387 9.0279 2.56608
2507 1 27.958 8.71414 2.06484
2508 1 27.465 9.45102 1.65312
289 1 28.2338 9.84596 2.22876
21 1 29.9227 9.85027 2.69796
287 1 29.2403 9.98164 1.86735
260 1 29.97 9.09747 1.91434
2251 1 29.0019 9.02067 2.35863
2252 1 28.9021 8.8266 1.46461
303 1 0.982075 0.267716 3.89476
121 1 1.39836 1.31747 3.90132
304 1 0.637936 0.827289 3.14827
31 1 2.17444 0.253705 3.03805
32 1 2.37037 1.1942 3.05785
342 1 2.53095 0.494387 4.1227
93 1 4.22049 1.19906 3.72889
341 1 3.18369 0.576819 3.42698
29 1 4.56607 0.471837 2.9748
354 1 5.45647 0.951741 3.55825
262 1 4.58357 0.00552742 3.98198
338 1 6.72042 1.34562 3.01311
370 1 6.44763 0.553412 3.50865
369 1 7.08764 1.016 4.06129
339 1 8.57065 1.3073 3.12931
899 1 8.24794 0.0582056 3.13305
616 1 7.88144 0.158308 4.10208
340 1 8.36708 1.28609 4.10378
710 1 9.29625 0.680875 3.7547
742 1 9.81094 0.0220234 2.9461
709 1 9.69575 1.14982 2.9777
656 1 10.4432 0.663857 3.50723
988 1 12.2119 0.459851 2.9655
907 1 11.4349 1.28002 2.93305
904 1 11.4872 0.431324 3.62771
994 1 12.4449 1.33266 3.55019
1205 1 12.5138 0.336653 4.15758
993 1 11.5778 1.34975 4.10603
1536 1 13.3716 0.966904 4.07251
1535 1 13.4347 0.880112 3.14662
968 1 14.4944 0.705743 2.98996
1249 1 15.3573 0.979217 3.5459
1317 1 15.9798 0.261372 2.90557
1000 1 15.8911 0.117684 3.999
1007 1 16.6247 0.967756 3.75746
1313 1 17.6279 0.588973 3.06574
1314 1 18.5465 0.763226 2.87396
1391 1 17.9145 1.09222 4.03455
1562 1 17.4784 0.0406788 4.13092
1310 1 19.902 1.1414 3.45453
1309 1 19.307 0.371735 3.4915
1640 1 19.0915 1.10964 4.21261
1633 1 20.5636 0.238201 3.78036
1718 1 20.8691 1.23693 3.84488
1881 1 21.227 0.68935 3.04392
1877 1 22.6087 0.887485 3.24878
1878 1 21.9145 0.878976 3.94986
2183 1 23.7154 0.508491 3.3245
1956 1 23.859 0.870709 4.27252
2176 1 24.4966 1.25196 3.14684
1960 1 25.4296 0.348306 3.67243
1959 1 24.7329 0.082302 4.20202
2334 1 26.0956 1.07347 3.6724
2273 1 26.6513 0.178336 3.99215
2498 1 27.5677 0.54066 3.32264
2497 1 28.5421 0.78535 3.36822
2267 1 29.667 0.644382 3.41086
2344 1 0.812608 1.97285 3.09244
2343 1 0.802963 2.44141 3.92188
41 1 0.0770663 1.4644 3.91592
445 1 2.46745 1.56167 4.14906
38 1 1.81348 2.33776 3.2481
446 1 2.56844 2.51535 4.25996
102 1 2.85853 2.26163 3.28512
101 1 3.46069 1.61242 3.0875
435 1 3.80589 2.14504 4.05156
414 1 3.91445 2.74345 3.0102
94 1 4.58724 1.51713 2.86877
353 1 5.68254 1.83871 3.2925
409 1 4.79207 2.27673 3.63804
350 1 5.66798 2.57176 4.24806
427 1 6.69732 2.11394 3.99063
344 1 7.64589 1.75163 3.44892
666 1 8.59032 2.28255 3.83686
644 1 9.42084 2.82438 3.91779
351 1 9.70089 1.65748 3.9103
743 1 10.3348 2.80707 3.21036
352 1 10.5859 1.84289 3.56893
978 1 11.5701 2.37816 3.502
1002 1 14.054 2.02039 4.08181
1001 1 13.2497 2.04449 3.56273
985 1 15.0137 2.09739 3.43995
1250 1 14.8678 1.46682 4.27677
986 1 15.9773 2.01975 3.35648
1407 1 17.0613 2.64102 3.93708
1008 1 16.0184 1.58304 4.19183
997 1 15.8681 2.79985 4.27377
979 1 17.3022 1.5653 3.17985
1408 1 17.1717 1.79258 4.25905
980 1 18.0747 2.11452 2.93001
1389 1 18.1682 2.35453 4.01468
1305 1 19.0202 1.97337 3.40695
1631 1 20.0646 2.26931 3.33513
1709 1 21.1243 2.71904 3.77061
1671 1 22.8008 2.22849 3.78829
1705 1 21.745 1.90777 3.5731
1672 1 23.3167 1.70623 3.13759
1620 1 23.7867 2.29969 3.9778
2175 1 24.3046 2.21515 3.03967
1619 1 24.7194 1.98599 3.92094
2340 1 25.5282 2.38062 3.44628
2361 1 26.8551 1.71977 3.65588
2287 1 27.8951 1.68817 3.26581
2052 1 27.2625 2.5408 3.14952
2278 1 28.8877 1.74041 4.00143
2268 1 29.8633 1.56689 2.95058
2277 1 28.8877 1.95101 3.0522
2519 1 29.7481 2.55216 2.90742
2520 1 29.6645 2.50416 3.89699
195 1 0.609521 3.08354 2.99592
2359 1 0.144249 3.6598 4.11311
196 1 0.936549 3.91698 3.42933
25 1 1.58085 3.13187 4.22325
26 1 2.04726 3.71506 3.59038
480 1 3.0263 4.23907 2.94106
497 1 4.03378 3.70744 3.29499
436 1 3.90134 3.11247 4.21511
434 1 3.3724 4.09416 4.06708
433 1 3.00177 3.32219 3.70408
410 1 4.90733 3.18389 3.85235
408 1 5.2887 4.21729 3.67209
407 1 4.48605 4.16241 4.23561
483 1 5.89859 3.10573 3.41717
425 1 6.8301 3.51588 2.92365
347 1 6.57342 4.16656 4.21337
426 1 6.82009 3.15488 3.81891
424 1 7.53087 4.15751 3.22809
745 1 7.9283 3.08949 3.4601
755 1 8.38953 4.15198 3.8173
756 1 7.72132 3.71127 4.26807
643 1 8.91007 3.31918 3.20176
747 1 9.93826 3.80888 3.70418
736 1 11.3891 3.49682 3.63202
1068 1 12.5829 2.91578 3.61036
1074 1 12.1337 3.83667 2.94627
1122 1 13.8863 4.16188 3.60326
1121 1 13.1718 3.76393 3.14961
984 1 13.7674 2.9789 3.74171
1076 1 13.0994 3.78951 4.2052
1077 1 15.2833 3.37636 3.02839
1078 1 14.7141 3.08836 3.75623
1382 1 15.4748 3.85128 4.00584
1376 1 16.2539 3.0622 3.38669
1085 1 16.4451 4.11602 3.72158
1086 1 17.1906 3.61733 3.38748
1419 1 18.2702 4.15423 4.25318
1400 1 18.6253 2.9678 2.94828
1390 1 18.8753 3.10214 4.05272
1385 1 19.5026 4.10481 3.7385
1312 1 20.0735 3.21411 3.85282
1710 1 21.2914 3.32445 3.05595
1798 1 21.0881 4.11737 3.78375
1394 1 20.3649 4.03557 3.05435
1873 1 22.1202 2.89108 3.40875
1797 1 22.0374 3.88569 3.77451
1943 1 23.7608 3.13913 3.32392
1944 1 23.0422 3.78684 3.39956
1628 1 24.251 3.72456 3.98736
1931 1 25.0303 3.1092 2.93025
2100 1 24.7165 4.1756 3.02079
2039 1 25.3647 3.86091 4.12023
2354 1 26.1078 3.20516 3.47184
2124 1 26.562 3.81513 4.23154
2364 1 27.5523 3.41281 3.77695
2363 1 28.2691 3.11874 3.19162
2431 1 29.5577 3.83713 3.02453
199 1 28.703 3.34422 4.0109
185 1 0.288111 5.2921 2.88239
2370 1 0.140908 4.63417 3.81497
103 1 1.4138 4.7646 3.09331
104 1 1.48983 5.70386 3.29721
180 1 2.84313 5.18498 3.39642
111 1 2.31242 4.49933 4.16827
112 1 1.79154 5.28571 4.21917
179 1 3.5824 4.98421 4.00556
421 1 5.37371 5.04855 2.98398
420 1 4.59853 5.63948 3.32448
331 1 6.36658 4.75173 3.23413
442 1 5.9071 5.02074 4.23203
825 1 7.71301 5.35906 2.87517
423 1 7.53266 4.8734 3.90383
826 1 8.27892 5.53156 3.69033
1157 1 9.99894 5.1567 3.30995
1158 1 9.22797 4.65547 3.62565
735 1 10.9396 4.36615 3.43922
758 1 10.699 5.49567 3.99134
1055 1 12.1508 4.37606 3.84826
912 1 12.3642 5.48319 4.10411
911 1 11.6893 5.23774 3.55976
1056 1 12.8755 4.70544 3.28542
1060 1 14.2431 5.12548 3.6747
1458 1 14.9353 4.42546 2.94205
1225 1 15.1709 5.59121 3.23353
1071 1 15.1868 5.04925 4.2463
1480 1 17.4885 4.6427 3.18154
1727 1 18.7319 4.54607 3.10607
1473 1 19.907 5.06581 3.25192
1716 1 19.0122 4.95044 4.14904
1782 1 21.18 4.90029 2.90096
1789 1 20.7941 5.28798 4.04551
2028 1 22.7491 4.99715 3.12059
1713 1 21.9781 4.94139 3.80605
2030 1 22.7842 5.69804 3.90925
2027 1 23.61 4.62825 3.33884
2040 1 25.5804 4.56023 3.46203
2348 1 24.3887 5.51076 3.1515
2036 1 26.5455 4.36822 3.24033
2112 1 26.3068 5.43365 3.85023
2335 1 27.5535 4.45463 2.8793
2035 1 27.1606 4.8834 3.73102
2037 1 28.2638 5.26752 4.08492
108 1 28.3911 5.27287 3.02295
107 1 28.6366 4.4213 3.41537
194 1 29.304 5.34898 4.08126
204 1 0.0624804 6.00611 3.59908
190 1 0.334132 7.13513 3.65842
189 1 0.845217 6.56289 3.11388
202 1 1.10969 6.48689 4.27423
184 1 2.25837 6.65379 3.62564
419 1 3.69238 5.85922 3.53588
281 1 3.19953 6.67289 3.02726
500 1 4.51261 7.11388 3.61343
512 1 5.06081 6.26838 4.00734
594 1 6.9068 5.76409 3.5093
593 1 5.92816 5.89505 3.43015
587 1 6.51482 6.80062 4.22679
819 1 7.27189 6.76137 3.28007
811 1 8.38146 6.45574 2.98173
504 1 7.7489 6.38444 4.09539
1135 1 9.62291 6.05806 3.0083
812 1 8.80129 6.33871 3.78145
897 1 9.84817 6.17946 3.96639
824 1 10.9704 5.71695 2.88571
898 1 10.6497 6.4776 3.53
1277 1 11.4904 6.94588 2.98492
1170 1 12.0342 6.46352 3.72159
1137 1 13.2528 5.7452 3.57224
1148 1 14.1165 6.28722 3.40396
1233 1 13.2917 6.97706 4.023
1160 1 14.924 6.76089 4.12393
1142 1 15.554 6.93984 2.88355
1226 1 16.0573 5.91362 3.22085
1481 1 16.8818 6.69861 3.19389
1558 1 16.1881 6.73347 3.96534
1464 1 17.5449 5.7356 3.52813
1489 1 17.7197 6.62774 4.09541
1715 1 18.5408 5.90942 4.16035
1474 1 19.4325 5.8428 3.54125
1795 1 18.7916 6.91586 3.82834
1774 1 21.3226 6.73925 3.28836
1781 1 20.6331 5.72948 2.99744
2121 1 20.4998 6.44904 3.93098
1773 1 21.5017 5.7964 3.55337
2029 1 22.3648 6.51589 3.48362
2031 1 23.3256 6.01207 2.9942
1791 1 23.41 6.85892 3.69101
2118 1 23.9698 5.78766 4.0708
2347 1 25.3292 5.79792 3.41954
2102 1 24.4369 6.65121 3.32622
2358 1 26.8602 5.82038 2.89735
2337 1 26.5082 6.65769 3.2405
2414 1 27.111 6.01156 4.18463
2428 1 26.7682 7.02453 4.22275
2499 1 28.2678 6.99789 3.50115
2413 1 27.803 6.13855 3.66353
207 1 28.8228 6.06044 3.57771
2438 1 29.2772 6.96771 3.82718
294 1 1.39355 7.52891 3.65561
58 1 1.3932 8.40969 2.8663
279 1 2.40745 7.44312 4.20528
280 1 2.53537 8.23031 3.71662
53 1 1.5805 8.30697 4.26103
575 1 3.79679 8.43476 3.11048
282 1 3.13076 7.57714 3.13641
569 1 5.49541 7.95595 3.57501
506 1 6.70574 7.69778 3.07577
588 1 6.48271 7.78821 4.16901
565 1 7.57689 7.84718 3.63738
566 1 8.45446 7.42784 3.49321
502 1 9.18483 8.38536 2.8948
803 1 9.53219 7.65957 3.67744
919 1 8.61461 8.26787 4.15978
1214 1 10.8289 7.70808 3.33514
804 1 10.2536 7.23371 4.13432
686 1 10.5498 8.48887 4.06665
1269 1 12.4965 7.4399 2.99808
1139 1 11.6873 7.42061 3.87319
1140 1 12.2813 8.16676 3.69407
1216 1 13.9128 7.76926 2.90029
1468 1 13.6646 7.89591 4.10276
1553 1 14.9823 7.73033 3.47363
1554 1 15.9177 7.75532 3.37384
1557 1 16.7276 7.50199 4.11819
1454 1 16.836 8.5007 3.4627
1490 1 17.9053 7.15341 3.36231
1807 1 18.2791 8.5695 3.68413
1808 1 17.9261 7.89088 4.19607
1547 1 19.1688 7.99257 3.17475
1548 1 19.8128 7.27544 3.15425
1893 1 19.6414 7.64067 4.23315
1868 1 19.9002 8.43646 3.64301
1853 1 20.8852 7.78328 2.92513
2122 1 20.7272 7.4255 4.14843
1859 1 21.0867 8.52896 3.69908
2107 1 21.6896 7.61486 3.76099
1792 1 22.8412 7.55184 3.35167
2169 1 24.1988 7.80961 2.91056
2275 1 24.0699 8.05828 3.95343
2276 1 24.9176 7.62301 3.90435
2199 1 25.2295 8.3185 3.16661
2338 1 26.3942 7.61227 3.36746
2191 1 25.8065 8.20134 4.08462
2518 1 27.0408 8.44293 4.12673
210 1 28.4759 7.90389 3.99003
2433 1 28.0568 8.34158 3.0622
2427 1 27.4593 7.54368 3.83681
2355 1 29.447 7.99594 3.1525
212 1 29.2919 8.4666 4.25
274 1 0.12645 9.70277 3.86857
54 1 1.32644 9.20997 3.93297
273 1 0.350946 8.75162 4.06703
57 1 1.83149 9.33829 2.92122
276 1 2.3847 9.29066 3.98944
24 1 2.73028 8.78809 2.87422
275 1 3.17779 9.56406 3.63972
277 1 3.98769 9.03355 4.22237
30 1 5.31297 9.9248 2.98255
571 1 5.44565 8.79372 2.86754
278 1 4.67076 8.94018 3.52392
596 1 6.0269 9.52249 3.84054
577 1 7.10744 9.83941 2.96348
505 1 6.4294 8.57201 3.46378
590 1 7.43764 8.92548 3.33071
589 1 8.09947 9.16821 3.90403
905 1 9.57055 8.7435 4.01021
584 1 9.84425 9.87676 4.21063
895 1 9.0408 9.5286 3.52632
1213 1 11.0631 8.6608 3.24007
906 1 10.1297 9.07079 3.33447
886 1 10.8881 9.61903 2.89844
1229 1 10.7663 9.47025 4.00875
903 1 11.9071 9.61562 3.51001
1235 1 12.8498 8.90835 4.24029
1219 1 12.9735 9.55566 3.41139
1152 1 13.5687 8.57843 3.46474
1220 1 13.9229 9.78453 3.35755
1228 1 15.4134 8.67176 3.55301
1227 1 14.9718 9.5488 3.6467
1570 1 16.2105 9.38396 3.28467
1574 1 18.4071 9.90793 3.44897
1573 1 17.6477 9.45162 3.10575
1497 1 17.478 8.91028 4.2759
1549 1 18.9156 9.04739 2.98077
1550 1 19.093 9.14939 3.93305
1867 1 19.9181 9.38875 3.41441
1871 1 21.3158 9.54128 3.67488
1860 1 22.0143 8.66537 3.71006
1861 1 22.5296 9.71148 3.69139
2177 1 23.0972 8.94458 3.07407
2190 1 23.2453 8.72409 4.19294
1926 1 24.4134 9.65738 3.28263
2192 1 25.4873 9.11178 4.20831
2200 1 26.1297 8.66478 3.11332
2505 1 26.8837 9.40248 3.47002
290 1 27.9622 9.51867 3.06094
2280 1 27.7286 9.45367 4.05027
291 1 29.65 8.93096 3.25558
2457 1 28.5851 8.97215 3.83815
292 1 29.0667 9.74774 3.31396
42 1 0.446027 0.768076 4.48684
39 1 1.88533 1.06243 4.94221
49 1 2.64444 0.0799191 5.61615
360 1 3.62437 0.368711 4.37296
448 1 3.8305 1.37593 4.6758
447 1 3.07297 0.974514 5.08474
358 1 4.99407 0.778829 4.73097
595 1 5.81119 0.329835 4.32325
781 1 5.96242 1.18128 4.87291
782 1 6.67159 0.552996 4.90885
615 1 7.88105 0.387876 5.04952
683 1 7.44816 1.30438 5.14043
682 1 8.74341 0.840964 4.98672
654 1 9.79719 0.833779 4.65995
653 1 9.61113 0.0741827 5.33119
1230 1 10.7309 0.208905 4.65343
910 1 10.2796 0.807831 5.51596
909 1 11.1818 0.57693 5.6909
1206 1 11.7619 0.399763 4.69163
1208 1 12.6259 0.356991 5.69267
1240 1 12.7016 1.13173 4.96514
1207 1 13.3419 0.126312 5.02183
1248 1 14.1889 0.282788 5.71364
677 1 14.0544 1.17972 5.11011
1246 1 14.3215 0.118438 4.38055
999 1 15.3711 0.632836 4.50713
1401 1 15.7659 0.688123 5.66132
1328 1 16.4747 1.37478 5.06426
1402 1 16.5694 0.23636 5.40228
1327 1 17.2954 0.857515 4.79389
1639 1 18.5235 0.417452 4.63404
1896 1 18.7298 0.704472 5.60843
1659 1 20.2258 1.11471 4.66493
1634 1 21.1335 0.434577 4.59672
1658 1 20.6935 0.0907667 5.66516
1856 1 22.7624 0.250496 5.44885
1855 1 22.8513 0.257632 4.47506
1635 1 22.3888 1.16433 4.92889
2193 1 23.4403 1.08705 5.39682
2194 1 24.1512 0.424183 5.22911
2256 1 25.223 1.07132 4.40714
1983 1 25.1934 0.492391 5.42735
2513 1 26.5768 0.97389 4.65954
2274 1 25.9914 0.136818 4.68686
2514 1 26.5015 0.847962 5.57961
2279 1 27.8836 0.376134 4.34415
2295 1 28.1835 1.23402 4.79182
1976 1 27.395 0.501704 5.34314
2293 1 29.7567 0.327845 5.16571
2528 1 29.1066 0.79347 4.36663
2304 1 28.9358 0.524462 5.65434
2385 1 29.5653 1.42014 5.14737
2352 1 0.839531 1.46209 5.06593
2447 1 1.22561 2.40028 5.58594
2351 1 0.194714 2.0474 4.77951
122 1 1.56707 1.98436 4.56889
45 1 2.51713 1.9226 5.23473
46 1 2.0968 2.81229 5.25557
128 1 3.28275 2.6901 5.09361
61 1 3.67978 1.69135 5.60124
357 1 4.80782 1.67345 4.46907
437 1 5.08695 1.75955 5.39252
428 1 6.70096 1.86009 4.89064
349 1 5.8679 2.67048 5.1644
343 1 7.7549 2.02888 4.42182
665 1 8.54085 2.83811 4.67681
361 1 7.73341 2.59729 5.29382
362 1 8.37501 1.86122 5.21167
754 1 9.41492 1.76754 5.32625
753 1 9.48189 2.71212 5.24135
982 1 10.3963 1.95829 4.59914
981 1 10.4631 2.82954 4.29213
995 1 11.1827 1.56646 5.00338
996 1 10.4432 1.83485 5.60127
672 1 10.6391 2.78726 5.33107
737 1 11.4854 2.61046 4.71224
738 1 12.2426 2.16661 4.36152
1237 1 12.3477 2.04925 5.36068
1239 1 13.1909 1.89577 4.62957
998 1 15.118 2.39874 4.56297
1090 1 15.6497 2.00127 5.33583
1162 1 14.3649 2.2956 5.40605
1403 1 16.4783 2.43951 4.96
1392 1 18.2853 1.52066 4.84173
1319 1 17.313 1.86017 5.34502
1741 1 18.1848 2.58041 5.09904
1641 1 19.1509 2.25934 4.7016
1642 1 19.478 1.80951 5.51691
1660 1 20.4387 2.03874 4.33242
1717 1 21.2947 1.47549 4.71601
1719 1 20.5948 1.77857 5.48212
1733 1 21.0274 2.73933 4.95807
1734 1 21.8892 2.32564 4.55553
1654 1 22.4692 2.73796 5.5455
1648 1 21.5674 1.79887 5.65838
1623 1 23.1492 2.05717 4.8591
1948 1 25.4644 2.44156 4.59995
1955 1 24.4064 1.49091 4.84914
1947 1 25.4849 2.46942 5.54779
1945 1 24.4209 2.41565 5.21893
2255 1 25.6442 1.55552 5.16164
2362 1 26.1397 1.81378 4.29972
1973 1 26.5643 2.33165 5.64377
2123 1 26.7134 2.8353 4.31811
2282 1 27.7314 2.3282 4.35418
2296 1 27.3775 1.63894 5.16014
2386 1 28.8937 2.05408 5.09588
2442 1 29.9517 2.75622 5.4885
2448 1 0.766402 2.86167 4.85754
2360 1 0.307977 3.79181 5.11289
127 1 2.80194 3.51645 4.88339
126 1 1.77446 3.86997 4.94006
130 1 3.79524 3.66599 5.30015
129 1 4.38604 2.93306 5.3193
431 1 5.46878 3.54746 5.55798
760 1 6.83148 3.17459 5.00068
432 1 5.75138 3.65819 4.59583
667 1 8.19475 3.3691 5.65938
829 1 7.51049 4.15082 5.317
761 1 8.85692 3.86924 4.85132
748 1 9.87502 3.61613 4.60336
671 1 11.0545 3.55358 4.84178
778 1 10.3005 3.88992 5.5565
1075 1 12.2346 3.3784 4.53203
1167 1 12.7396 4.13147 5.16268
1014 1 12.0496 3.02542 5.43287
983 1 14.1209 2.97253 4.71675
1081 1 13.1234 3.00606 4.87948
1079 1 13.7319 4.24097 5.09343
1080 1 14.4152 4.11915 4.46443
1134 1 15.1681 3.46311 4.87976
1381 1 16.2928 3.68579 4.59593
1404 1 16.0559 3.08045 5.62146
1420 1 17.3065 4.07959 4.37333
1742 1 18.229 3.53304 5.29088
1411 1 17.374 3.19343 4.85598
1311 1 19.8655 3.20423 4.7955
1731 1 19.0306 4.12543 4.90365
1752 1 19.2041 2.89236 5.66148
1732 1 19.9674 4.20918 5.28738
1650 1 21.0069 3.78962 5.00083
1649 1 20.5864 3.34036 5.70629
1729 1 22.3006 3.32148 4.53494
1730 1 22.032 3.69174 5.34253
1624 1 23.4769 2.87245 5.18783
1627 1 23.4543 3.25665 4.32362
2046 1 24.1472 4.05015 5.48492
2041 1 22.9685 4.12845 5.3455
1946 1 24.7028 3.29059 4.93234
2049 1 26.6371 3.41153 5.58054
1966 1 25.7779 4.09736 5.50171
1965 1 25.845 3.31678 4.91745
2050 1 27.055 4.18258 5.25459
2281 1 27.4061 2.93739 5.0752
2365 1 27.644 4.25746 4.39583
2366 1 28.1774 3.63973 4.87725
2285 1 28.5347 2.97682 5.57048
200 1 29.1359 4.15751 4.33506
2441 1 29.3633 2.94294 4.75473
203 1 0.493645 5.64763 4.30011
2369 1 0.961047 4.55586 4.32134
124 1 0.667687 4.77825 5.20539
123 1 1.1864 5.63455 5.04801
592 1 2.39672 5.33483 5.04398
191 1 2.95332 4.5462 5.14911
116 1 3.92585 4.72827 5.16988
591 1 3.24112 5.70201 5.07441
441 1 4.9399 5.18896 4.36981
115 1 4.87242 4.53838 5.28115
522 1 4.95269 5.63828 5.48706
348 1 6.79412 4.81745 4.88458
827 1 7.6815 5.22898 5.67333
830 1 8.17364 4.60111 4.83011
503 1 7.50714 5.62976 4.66234
751 1 8.94849 5.04629 4.45579
752 1 9.85481 4.716 4.39575
749 1 8.77268 5.30538 5.68289
750 1 9.41703 4.60404 5.36002
846 1 10.247 5.56779 4.91222
757 1 11.0244 4.63117 4.39646
1094 1 11.2314 4.79599 5.56435
1168 1 12.1003 4.76788 4.77504
1059 1 14.2054 5.61177 4.5004
1189 1 13.1815 5.11974 4.81597
1097 1 14.9447 4.83549 5.37574
1098 1 15.7266 4.49034 5.01369
1475 1 16.7754 5.00197 4.87871
1496 1 15.9393 5.55686 5.25304
1463 1 17.6221 5.1418 4.3448
1397 1 17.5712 4.5183 5.34497
1398 1 18.3378 5.02641 5.07249
1725 1 19.3893 4.97078 5.58359
1799 1 19.8409 5.57813 4.67275
1701 1 20.2857 4.5831 4.40729
1702 1 20.6697 4.97094 5.1798
1723 1 21.4191 5.67541 5.60997
1714 1 21.5372 4.59004 4.65555
2042 1 22.5472 4.3979 4.48951
1739 1 22.5138 5.69588 5.59342
1962 1 23.5995 4.49633 4.39405
1961 1 23.1571 5.21881 4.70802
2025 1 24.8298 4.89174 5.35991
2026 1 24.7108 5.05663 4.44222
2128 1 25.6087 5.53536 5.15172
2367 1 26.0737 4.73264 4.68183
2368 1 26.9577 5.10859 4.73886
2465 1 28.1475 4.70293 5.26267
2436 1 27.7399 5.61496 5.70189
117 1 29.6946 4.78461 5.13563
193 1 28.7829 5.34696 4.88725
138 1 0.422444 6.60393 5.04596
137 1 1.1459 6.37902 5.6276
284 1 2.08125 6.26542 4.85985
283 1 2.80644 6.73918 5.26084
201 1 1.57372 7.06724 4.8684
499 1 3.97318 6.87736 4.43891
183 1 2.93664 6.52416 4.30001
219 1 4.07 6.30334 5.40448
511 1 5.53113 7.03978 4.34089
509 1 4.94324 6.72702 5.30995
514 1 6.17968 5.75784 4.88625
513 1 6.93155 6.30865 5.33561
1064 1 8.329 6.09294 5.05555
1063 1 7.85081 6.8301 5.40366
917 1 8.34573 7.1298 4.52751
845 1 9.32761 5.94717 4.89308
831 1 9.86676 6.8763 5.12421
835 1 10.8105 6.42691 4.71807
1156 1 11.2638 6.53187 5.63051
836 1 11.4642 5.7258 4.71324
1169 1 12.0575 6.61676 4.70029
1153 1 12.6297 5.81031 5.43156
1190 1 13.1667 6.07073 4.70888
1252 1 13.1615 7.04866 5.14059
1255 1 13.9928 6.70583 5.6359
1072 1 15.6163 5.91553 4.36552
1177 1 14.8007 6.30886 5.06225
1476 1 16.7855 5.84287 4.36493
1499 1 16.0861 6.54839 5.18174
1495 1 16.8713 5.75947 5.55124
1485 1 17.2059 6.66245 4.98893
1421 1 18.4705 6.85315 5.01899
1486 1 17.7257 5.86442 5.05139
1478 1 18.8924 5.83912 5.29111
1796 1 19.4023 6.55049 4.49661
1790 1 20.7812 5.93063 4.83204
1800 1 20.094 5.77138 5.54157
1801 1 20.1662 6.96434 5.08549
1787 1 21.5587 6.67014 4.30934
1883 1 21.6599 6.64701 5.56828
1788 1 21.7971 5.81706 4.63034
2114 1 22.4905 6.52038 4.93755
2117 1 23.592 6.27098 4.83439
2127 1 24.8347 6.10119 5.03565
2129 1 24.9496 6.72506 4.33439
2111 1 25.9701 6.21651 4.40485
2140 1 26.8647 6.7075 5.32631
2133 1 25.7844 6.86651 5.39434
2445 1 27.9588 6.81459 4.58278
2038 1 27.9457 5.83595 4.75116
2446 1 28.3863 6.38102 5.40469
118 1 29.8607 5.7184 5.04724
113 1 29.6513 6.9614 5.59858
2437 1 29.2032 6.49331 4.63342
293 1 0.768328 7.66199 4.4278
214 1 0.327803 8.27515 5.09141
2308 1 2.15522 7.84933 5.28025
515 1 3.81223 7.90117 4.48024
35 1 3.13222 7.76666 5.31028
269 1 4.17451 7.81621 5.46886
36 1 3.13421 8.55052 4.73251
516 1 4.70572 8.20427 4.33902
510 1 5.22669 7.64082 5.15333
582 1 6.42407 7.47046 5.1525
916 1 7.01313 8.36446 5.65357
603 1 7.21776 8.49573 4.44982
918 1 7.35734 7.35503 4.56969
920 1 8.16324 8.02895 4.99496
1173 1 9.58579 7.96676 4.89245
833 1 8.97785 7.34853 5.38135
921 1 10.848 7.38192 5.08276
1174 1 10.1104 8.22371 5.61077
685 1 11.0354 8.32744 4.8753
1234 1 12.6144 7.54985 4.34831
1242 1 12.1656 8.30063 5.13494
1159 1 14.2614 7.17167 4.65449
1467 1 13.2174 8.12909 4.93201
1541 1 14.1548 8.53092 5.10473
1542 1 14.7045 8.41407 4.30937
1145 1 15.6674 7.50523 4.51544
1576 1 14.3686 7.65625 5.59443
1146 1 15.2131 7.20297 5.31446
1564 1 15.571 8.46698 5.11966
1563 1 16.1153 8.51853 4.29717
1559 1 17.0822 7.66664 5.28775
1560 1 16.174 7.66613 5.65961
1498 1 17.6234 8.53086 5.1503
1805 1 18.3528 7.93186 5.57377
1894 1 19.2868 7.49064 5.06012
1903 1 18.9425 8.57076 4.92937
1492 1 20.1232 8.16146 5.70994
1491 1 20.3593 8.25368 4.75349
1863 1 21.1891 7.52279 5.24964
1864 1 21.4978 8.30662 4.70996
2108 1 22.3275 7.56104 4.46383
2197 1 23.9456 8.0802 4.98061
2198 1 23.2863 7.37221 4.83702
1885 1 22.8953 8.15199 5.39793
2130 1 25.6924 7.26002 4.52171
2202 1 24.6803 7.3987 5.36368
2451 1 25.8455 8.49783 5.24127
2443 1 26.7217 7.75131 5.05106
2444 1 27.6241 7.9431 4.85163
2203 1 27.9166 7.3901 5.68958
209 1 28.7032 7.48171 4.78512
2439 1 29.3358 8.48629 5.39184
211 1 29.785 7.6192 4.47404
2292 1 0.541062 9.76762 4.78761
44 1 1.06631 8.89314 5.04774
43 1 0.523471 9.31041 5.70414
34 1 1.64261 9.90195 4.7502
33 1 2.10038 9.18157 5.23122
359 1 3.13598 9.65166 4.78577
59 1 3.98435 8.96522 5.70037
261 1 4.37574 9.95663 4.88883
600 1 4.74811 8.85569 5.07196
599 1 5.29127 9.37714 4.48194
604 1 6.96039 9.39715 4.29043
598 1 6.04482 8.67386 4.4786
368 1 6.19485 9.62853 5.11696
367 1 7.08494 9.31089 5.381
597 1 5.82639 8.70884 5.37541
585 1 8.00888 8.96991 5.41522
583 1 8.92647 9.85166 4.60455
914 1 9.17484 8.90633 4.95237
924 1 8.71598 9.67846 5.63998
913 1 10.119 9.2281 4.89583
1223 1 11.7704 9.37119 5.38032
1224 1 11.9069 9.11576 4.38855
1236 1 12.8303 9.29431 5.16702
1245 1 13.8153 9.26188 4.34376
1247 1 14.4621 9.44208 5.34308
1315 1 15.1569 9.3212 4.65746
1316 1 15.5553 9.71058 5.49391
1579 1 16.6923 9.15144 5.39671
1580 1 16.5814 9.59261 4.5782
1904 1 18.4047 9.33965 4.67194
1561 1 17.5607 9.77244 5.13303
1887 1 19.8612 9.66861 4.45631
1888 1 19.9652 9.06576 5.247
1895 1 19.2965 9.91675 5.47806
1872 1 20.835 9.25717 4.50918
1890 1 21.0573 8.65813 5.55146
1637 1 22.3452 9.16636 4.59371
1643 1 21.7641 9.61764 5.31129
1638 1 22.7835 9.19407 5.44056
2189 1 24.1574 8.95248 4.32428
1949 1 23.5404 9.6985 4.93126
1950 1 23.8128 8.97234 5.50192
2512 1 24.7191 9.49733 5.65068
2452 1 24.8737 8.60662 5.23013
2511 1 25.5334 9.40954 5.20049
2517 1 26.4911 9.0428 4.53228
2119 1 26.6299 8.98692 5.67789
1975 1 27.2175 9.61053 4.97044
2458 1 28.4126 8.88525 4.76989
2120 1 27.5873 8.63902 5.69536
2527 1 28.84 9.89127 4.42632
2291 1 29.6876 9.30002 4.77636
300 1 0.652843 0.475136 5.87758
2377 1 0.284527 1.08929 7.03572
40 1 1.60505 1.32254 5.79662
70 1 2.30317 0.58314 6.39996
364 1 4.0279 0.00542677 5.95119
67 1 4.12623 0.745755 6.69678
374 1 5.55733 1.17075 6.57978
363 1 4.72902 0.603994 5.7444
373 1 5.93469 0.625532 5.84437
618 1 6.9746 0.257386 5.81392
323 1 7.10137 1.30825 6.93742
622 1 8.0348 0.770981 6.47829
681 1 8.84737 0.939741 5.98801
698 1 9.72352 0.128486 6.74556
674 1 10.7067 0.677276 6.55402
1238 1 12 1.21461 5.77098
1572 1 12.6922 0.666554 6.63004
1571 1 13.6982 0.819277 6.61839
1322 1 14.5459 0.278443 6.69078
1332 1 14.7998 1.18935 5.8676
1331 1 15.3217 1.07712 6.71226
1323 1 16.6296 0.12375 6.45444
1333 1 16.2558 1.398 6.54801
1661 1 17.3999 0.748735 5.86848
1662 1 17.1896 0.86693 6.8116
1897 1 18.1821 0.707029 6.67369
1657 1 19.9389 0.648592 5.79372
1898 1 19.0906 0.204225 6.53873
1655 1 19.8287 1.30665 6.63513
1720 1 20.816 1.17785 6.20264
1737 1 21.2896 0.0783274 6.71139
1738 1 20.3438 0.282188 6.63559
1647 1 21.684 0.87974 5.81214
2210 1 22.2494 0.6865 6.80331
1980 1 21.476 1.1822 7.09822
1954 1 23.2256 0.719585 6.39886
2224 1 24.1748 1.01187 6.93405
1922 1 24.4164 0.288125 6.20542
2223 1 25.0584 0.570875 7.09199
1978 1 25.9506 0.907823 6.72721
2531 1 26.0806 0.0165281 7.12281
2242 1 28.1354 1.00344 6.87088
2241 1 27.3697 0.713412 6.41632
299 1 29.8656 1.0033 6.02806
2283 1 29.7607 0.0204247 6.66606
301 1 0.365431 2.04088 6.0378
302 1 1.02841 1.69861 6.65492
143 1 1.0426 2.65516 6.70077
48 1 2.05588 2.42032 6.22113
69 1 2.07185 1.45538 6.91976
62 1 2.96503 1.86084 6.25593
197 1 3.80648 2.78099 6.18876
365 1 4.53133 1.82297 6.50087
438 1 5.69628 2.06263 6.10331
198 1 4.81723 2.69195 6.2488
324 1 6.6898 1.46535 6.12434
759 1 6.85808 2.56159 5.77008
792 1 6.85921 2.40428 6.84946
689 1 8.3199 1.86882 6.81429
684 1 7.68564 1.56529 6.03673
668 1 7.83527 2.79056 6.35464
690 1 8.72528 2.27992 6.07598
641 1 9.74051 1.57442 6.47467
673 1 11.0831 1.47265 6.42971
642 1 10.3072 2.37565 6.51096
1070 1 12.7906 1.89042 6.59286
1013 1 11.6062 2.47067 6.0826
678 1 13.3838 1.57454 5.74952
1069 1 13.5567 2.52273 6.70681
1021 1 14.1819 1.74713 6.68593
1089 1 15.4991 2.25105 6.3044
1334 1 16.555 2.11504 5.98453
1320 1 17.9877 2.12774 5.94326
1366 1 17.2025 1.89929 6.74818
1326 1 18.8713 2.21374 6.52459
1410 1 19.8926 2.5104 6.33509
1409 1 20.7513 2.27231 6.69922
1636 1 22.4904 1.59137 5.80702
1986 1 21.8116 2.5834 6.62281
1653 1 23.0417 2.38025 6.24902
1957 1 23.7493 2.79606 7.00435
1951 1 24.09 1.72284 6.03716
1646 1 23.0393 1.6593 6.91582
1952 1 25.0463 1.46441 6.07146
1972 1 24.8704 2.27339 6.76667
1974 1 25.9946 1.79382 6.1183
2373 1 27.0919 1.79608 6.46452
1967 1 26.0039 2.82113 6.44891
2286 1 27.8546 2.27838 5.73798
2374 1 27.1882 2.72283 6.42596
2310 1 28.2939 2.1962 7.00325
2303 1 28.8446 1.4412 5.89134
2383 1 29.3376 2.74691 6.23629
141 1 0.986761 3.35831 5.87836
142 1 0.159149 3.50471 6.2549
150 1 1.22009 3.77686 6.91158
125 1 2.32072 4.0272 5.74472
47 1 1.95131 3.34533 6.44624
51 1 2.91425 3.22257 6.00988
52 1 2.92046 3.21162 7.06022
457 1 3.72192 3.90595 6.41411
458 1 4.50237 3.46133 6.86913
440 1 6.41395 3.94267 5.71787
449 1 6.05209 3.12544 6.53875
456 1 6.98788 3.43387 6.52296
694 1 8.46464 4.01885 6.70157
762 1 9.22391 3.55336 5.72055
675 1 8.76655 3.11656 6.95149
783 1 9.75634 3.41401 6.61951
777 1 10.9465 3.76831 6.22619
1096 1 12.5089 2.98438 6.94218
771 1 11.9926 3.96899 6.12833
1161 1 14.0403 3.08366 5.76648
1082 1 13.0101 3.00141 5.85672
1172 1 13.2742 4.16214 6.54451
1150 1 14.027 3.59921 7.02725
1133 1 15.0935 3.65689 5.80879
1149 1 14.6229 2.88865 6.68436
1506 1 14.9078 4.25897 6.96273
1418 1 15.6773 2.97337 7.08897
1412 1 17.1067 2.94403 5.74267
1084 1 16.3319 3.61963 6.49114
1164 1 16.5608 4.24988 5.73497
1083 1 16.9683 3.50741 7.13787
1163 1 17.3332 3.87361 6.19501
1751 1 18.529 3.28344 6.22955
1427 1 17.898 3.08484 7.07518
1670 1 19.322 3.15746 6.82173
1726 1 19.1735 4.09014 5.91897
1664 1 21.1457 4.22396 6.26198
1688 1 20.0926 3.86678 6.71855
1690 1 21.1606 3.41674 6.8152
1689 1 22.0429 3.61868 6.42082
1970 1 24.2628 3.0419 5.97905
1969 1 23.3744 3.41669 6.0606
1958 1 23.0545 3.44269 7.06593
2064 1 23.8947 3.96186 6.80966
2045 1 24.914 3.97725 6.05598
2063 1 24.7685 3.48757 7.0218
2137 1 26.7063 3.48811 6.83846
2138 1 25.808 3.83041 6.74958
2372 1 27.584 3.68171 6.01904
2381 1 28.3934 4.23046 6.85488
2382 1 28.2985 3.33465 6.72109
2384 1 29.2669 3.61158 5.77441
149 1 1.24325 4.45619 6.15235
2454 1 0.0834745 4.45124 6.02656
134 1 0.646886 5.28301 6.38114
133 1 0.44583 4.55179 6.90459
547 1 2.61342 4.3745 6.80991
469 1 2.58861 5.37094 6.63775
236 1 1.77948 5.2916 5.80246
192 1 3.08461 4.82895 6.02439
518 1 4.09383 4.82277 6.59922
517 1 4.89838 4.37171 6.38247
521 1 5.09546 5.33757 6.40856
439 1 5.80423 4.68966 5.79388
763 1 6.73378 5.27201 5.81793
464 1 5.90108 4.51864 6.88602
764 1 6.21588 5.48824 6.58887
455 1 7.29632 4.33953 6.33621
693 1 8.4601 4.33312 5.81799
443 1 7.80775 5.17875 6.76951
769 1 9.55456 5.16142 6.28126
765 1 8.98963 4.86085 7.02324
770 1 10.0985 4.43991 6.6896
1103 1 11.1792 5.00082 6.68212
1093 1 11.7109 5.5653 5.80656
772 1 12.3707 4.87993 6.32439
1104 1 11.8534 4.55806 7.11983
1171 1 13.3953 4.8442 5.87698
1192 1 13.8216 4.82329 7.02056
1505 1 14.3332 4.38605 6.19085
1191 1 14.5282 5.50764 6.89338
1501 1 15.6137 5.24836 6.94239
1414 1 15.7278 4.62435 6.1883
1413 1 16.6013 4.99094 6.33414
1665 1 17.9539 5.40197 5.98397
1666 1 18.1611 4.47775 6.16577
1423 1 17.5825 5.275 7.13094
1686 1 19.863 4.95834 6.58201
1405 1 18.8575 4.8497 7.03609
1663 1 20.723 5.08687 6.17786
1754 1 21.9649 4.79116 6.81832
1753 1 21.923 4.78156 5.79941
1684 1 23.0389 4.95113 6.89363
1963 1 23.47 4.89585 5.95109
2054 1 23.9352 5.37151 6.93375
1964 1 24.3683 4.72503 6.34591
1722 1 24.7814 5.70989 6.13605
2043 1 25.5232 4.89452 6.29732
2044 1 25.049 4.7139 7.11178
1811 1 26.1898 4.76325 7.0535
1812 1 26.4759 4.35456 6.19098
2449 1 26.6875 5.41664 5.91152
2371 1 27.4006 4.53622 6.46073
2466 1 28.7224 4.73191 6.03163
2453 1 29.4756 4.37116 6.76448
114 1 0.0421611 6.32747 6.09449
235 1 1.52108 5.75248 6.67218
206 1 2.24571 6.3075 6.01458
220 1 4.05714 5.99069 6.31261
205 1 3.13122 6.47969 6.24724
285 1 3.78275 6.97865 7.13628
839 1 5.00641 6.53882 6.32957
840 1 5.78068 6.17995 5.85803
608 1 6.57615 6.74829 6.3617
849 1 7.07422 6.02531 7.02764
828 1 7.60316 6.09776 6.06558
526 1 7.92914 6.88225 6.65446
832 1 9.7247 6.14703 5.83564
851 1 8.69199 6.31937 5.98226
852 1 8.70255 5.7679 6.77414
822 1 9.38999 7.06445 6.35175
922 1 10.6008 7.12991 5.98417
843 1 10.6251 5.85757 6.18432
844 1 10.4371 6.45924 6.99317
1155 1 11.6179 6.30066 6.56056
1154 1 12.3484 6.60325 5.81931
854 1 12.5554 6.94397 6.77571
1182 1 12.6673 5.79604 6.52606
1181 1 13.6017 6.02992 6.61601
940 1 13.6886 7.07093 6.9978
1178 1 14.8905 5.91064 5.94585
1256 1 14.5387 6.98424 6.34837
1415 1 15.5757 6.90796 6.42647
1416 1 15.9952 6.07379 6.151
1507 1 16.9773 6.06543 6.66342
1500 1 16.7195 6.80733 5.90027
1508 1 16.2611 6.59029 7.02418
1744 1 17.7732 6.35367 5.97938
1743 1 18.1284 6.5259 6.84168
1823 1 17.1745 7.10936 6.84571
1422 1 18.75 6.76066 6.02329
1802 1 19.9746 7.04865 6.09464
1477 1 19.0728 5.79638 6.23896
1826 1 19.175 6.5885 6.85713
1735 1 19.9846 6.10867 6.723
1724 1 20.959 6.0732 6.3307
1740 1 22.1985 5.88239 6.52514
1879 1 22.2651 6.86109 6.7024
1721 1 23.9422 5.80931 5.72758
2113 1 22.977 6.63265 5.74999
2053 1 23.4333 6.14213 6.94708
2116 1 24.0809 6.63227 6.18364
2149 1 24.2621 7.10076 7.04989
2134 1 25.7025 6.17319 6.08949
2115 1 24.9864 6.88635 6.22925
2450 1 26.6525 6.09437 6.58176
2139 1 26.4157 7.07262 6.11283
2435 1 27.5487 6.40563 6.16185
216 1 28.4831 6.00462 6.51386
215 1 29.1781 5.82414 5.90392
2204 1 28.6317 6.99374 6.1348
213 1 0.505561 7.56897 5.76956
224 1 1.39993 7.44198 6.37027
222 1 0.247104 7.16573 6.84353
218 1 0.0642702 8.04377 6.49831
223 1 2.12493 7.88779 6.90912
227 1 2.58567 7.32709 6.16721
2307 1 1.47871 8.27357 5.83213
295 1 2.58436 8.41538 6.08309
270 1 4.0112 7.25362 6.26679
228 1 3.1172 7.82464 6.76426
60 1 4.06939 8.4064 6.50938
611 1 4.95094 7.84937 6.31445
581 1 6.1211 7.87684 6.02649
607 1 5.88837 7.26129 6.80447
927 1 6.63837 8.30636 7.05693
928 1 6.97194 7.46239 6.99155
915 1 7.4258 7.54933 6.0063
586 1 8.04665 8.34029 6.21989
834 1 9.12528 8.07012 6.02283
821 1 9.80728 7.8194 6.66863
857 1 8.63067 7.70969 7.02518
936 1 11.3203 8.0078 5.84922
935 1 10.8359 7.99599 6.71321
1251 1 12.5406 7.56455 5.72198
853 1 11.9288 7.6656 6.5086
1266 1 13.5274 8.54166 5.99684
1166 1 14.2507 8.00133 6.98763
1265 1 13.1163 7.87096 6.62417
1335 1 15.4357 8.01812 6.70404
1575 1 14.7655 8.4567 5.95634
1588 1 16.631 7.98971 6.49233
1806 1 17.7681 7.48594 6.15509
1494 1 17.696 8.50997 6.39607
1825 1 19.1704 7.49794 6.98711
1816 1 18.6213 8.34384 6.54887
1603 1 19.7527 8.41259 7.05186
1793 1 21.078 7.46521 6.25188
1794 1 20.6621 7.69768 7.05422
1884 1 22.1128 7.47727 5.7694
1889 1 21.9272 8.47656 5.78487
1875 1 21.7594 8.36431 6.88948
1886 1 22.7363 8.03346 6.28992
2195 1 23.5733 8.56985 6.78608
1786 1 23.5596 7.64033 5.83284
1785 1 23.2948 7.21553 6.69963
2201 1 24.4437 8.0864 6.06144
2207 1 25.4898 7.73852 6.13805
2141 1 25.0724 8.08469 7.0411
2302 1 26.8587 8.02888 6.15514
2301 1 26.4111 8.28432 6.93466
2440 1 28.5167 8.35489 5.9731
2455 1 27.2733 7.21067 6.6911
217 1 29.191 7.79203 6.57547
2525 1 1.35018 8.71548 6.74242
2312 1 0.977145 9.96907 6.84727
2516 1 0.362517 9.0092 6.84504
315 1 1.83045 9.6152 6.06988
316 1 2.04783 9.65826 6.97722
296 1 2.80712 8.86403 6.9037
50 1 3.11378 9.35396 5.9933
388 1 3.37053 9.8647 6.97299
355 1 4.94418 9.20643 5.95603
623 1 4.88771 8.94644 6.95658
356 1 5.22795 9.99264 6.45499
624 1 5.74812 8.70318 6.68186
945 1 6.18635 9.72428 6.69979
946 1 6.7345 8.99417 6.31036
617 1 7.61927 9.72904 6.30266
838 1 9.03369 8.72651 6.83045
923 1 9.54922 9.18366 5.84898
697 1 8.7854 9.98198 6.82671
837 1 9.99549 8.92434 6.76794
1012 1 11.3311 9.80891 6.57901
669 1 10.5243 9.74133 5.73603
670 1 10.8414 8.86158 6.08606
1241 1 12.3685 8.6116 5.99558
1568 1 12.3837 9.64839 6.6743
1487 1 13.3864 9.80956 6.98939
1488 1 13.3457 9.70595 6.02122
1258 1 15.3009 9.04967 7.04753
1257 1 14.3795 9.03309 6.80507
1324 1 15.7079 9.97061 6.47774
1493 1 16.9425 9.09411 6.43661
1336 1 15.955 8.7462 6.25978
1581 1 17.5377 9.75271 6.92736
1582 1 18.0009 9.83948 6.05306
1819 1 19.8323 9.3355 6.38101
1815 1 18.8585 9.10121 5.99936
1891 1 18.8971 9.22302 7.0521
1820 1 20.6216 8.82027 6.58616
1644 1 21.915 9.37993 6.22122
2196 1 22.8416 9.06034 6.42911
1921 1 24.0365 9.96103 7.02098
2209 1 22.8638 9.92872 6.94511
1953 1 23.4564 9.87617 6.11944
1984 1 25.4361 9.97396 6.26341
2208 1 25.3511 8.72332 6.16045
2125 1 25.2535 9.18604 7.10688
2126 1 24.5102 9.10858 6.53469
2532 1 26.4669 9.92669 6.21894
2216 1 26.8729 9.3941 7.06589
2297 1 28.5279 9.66011 6.1048
2521 1 27.4776 9.65925 6.14455
2522 1 27.7731 8.93976 6.6707
2298 1 28.4016 9.83313 7.03436
2294 1 29.5369 9.57994 5.79578
2515 1 29.4566 8.78681 6.85352
66 1 1.2872 1.02815 8.53151
2305 1 0.301169 0.866738 8.44389
2311 1 1.45319 0.726571 7.27266
74 1 2.23924 0.79488 8.01912
1 1 3.02181 1.32938 7.21487
2 1 3.49599 0.679317 7.79227
453 1 5.6833 1.26092 8.25126
605 1 4.73809 0.809716 7.80845
371 1 5.44314 0.129504 7.55953
372 1 6.21282 0.647115 7.39013
390 1 6.75891 0.475007 8.3302
621 1 8.11893 0.56798 7.4798
704 1 8.40835 0.766212 8.48653
699 1 9.42505 0.152654 7.95596
679 1 9.11912 1.30742 7.51086
1018 1 10.0978 1.04224 7.3829
696 1 10.0606 0.888585 8.54962
933 1 10.8028 0.232054 8.30577
1011 1 11.8305 0.365296 7.16919
1261 1 11.542 0.869803 7.90338
1087 1 12.4436 1.32473 7.40473
1591 1 13.0077 0.393857 7.83774
1337 1 14.0708 0.0428059 8.54465
1009 1 15.4441 0.23844 7.56228
1023 1 14.4442 0.942285 7.74761
1010 1 16.1429 0.91656 7.50813
1349 1 17.8336 0.555021 7.69889
1899 1 19.7045 0.622009 7.55815
1656 1 20.4872 1.34316 7.34511
2220 1 21.354 0.960062 8.07755
1652 1 20.2541 0.705912 8.42365
1694 1 22.3549 1.21003 8.52841
2219 1 22.1314 0.439927 7.80061
2218 1 23.1132 0.737733 7.58242
2217 1 23.5933 0.0215943 7.93991
1993 1 24.2924 0.866546 8.04376
1994 1 25.0339 0.227009 8.10091
1990 1 25.849 0.875198 7.99493
1977 1 26.7091 1.23409 7.23292
1924 1 26.7098 1.00774 8.47199
2530 1 27.9541 0.61422 7.97861
2529 1 27.6074 1.41599 8.33453
1997 1 29.1507 0.909754 8.21789
2378 1 0.887351 1.57148 7.67527
2399 1 0.0753697 2.37002 7.2697
81 1 1.02294 2.65373 7.89432
82 1 0.476757 2.22638 8.52371
75 1 2.73294 2.17468 8.40554
144 1 1.88943 2.59038 7.26639
76 1 1.84651 1.81659 8.20637
68 1 4.01969 1.48016 7.30876
307 1 3.41457 2.37297 7.41957
79 1 3.96174 1.47857 8.43477
366 1 4.9736 1.82105 7.37325
450 1 5.4964 2.78646 7.22665
308 1 4.31932 2.46473 7.71174
707 1 6.68697 1.77732 7.97732
708 1 6.05253 1.9127 7.33239
452 1 6.03267 2.49795 8.15393
702 1 7.93742 2.50668 7.69503
703 1 8.43884 1.71256 8.27077
767 1 7.19138 2.40027 8.54217
676 1 9.2486 2.41578 7.2551
680 1 9.43371 1.87496 8.16923
1116 1 8.82716 2.83466 8.4557
1017 1 10.9494 1.58027 7.41745
1092 1 11.0517 2.78038 8.02174
1268 1 11.3489 1.80925 8.48661
1006 1 10.0381 2.65175 8.46987
1263 1 12.0921 2.28586 7.75006
1088 1 12.3165 1.43401 8.3637
1022 1 13.5874 1.48566 7.47624
1024 1 14.0304 1.45075 8.45763
1264 1 13.0069 2.30815 8.04982
1016 1 13.9048 2.83611 7.68066
1015 1 14.4666 2.03371 7.76986
1028 1 15.4933 1.8764 7.46974
962 1 15.0476 2.73031 8.2752
1027 1 15.2621 1.60172 8.40391
1365 1 16.5107 2.24387 7.28874
1345 1 16.3031 2.01782 8.24231
1346 1 16.958 1.51089 7.85289
1667 1 18.1273 1.64254 7.72304
1428 1 17.4022 2.84316 7.75074
1325 1 18.7006 2.53551 7.43067
1906 1 19.9023 1.92688 8.2022
1668 1 18.8915 1.4879 7.33905
1905 1 19.6473 2.09704 7.25301
1747 1 20.4138 2.78778 7.58944
1700 1 21.0547 1.94664 8.09416
1979 1 22.0563 1.71973 7.62754
1645 1 22.7593 2.46642 7.31739
1996 1 22.4077 2.3523 8.37416
2214 1 24.1562 1.90722 7.57536
2213 1 24.1677 1.98512 8.50874
2056 1 23.1504 1.67982 7.98107
1971 1 25.1662 1.60999 7.49003
1981 1 25.5008 2.44155 8.43817
2075 1 25.2347 2.7685 7.49132
1968 1 26.1922 2.2031 7.21486
1923 1 26.4712 1.84237 8.19343
2380 1 27.0456 2.6618 8.45705
2379 1 27.2831 2.45854 7.5021
1998 1 28.6593 1.82235 8.33888
2309 1 28.9365 2.78372 7.49501
2400 1 29.5688 2.41499 8.08305
72 1 1.35026 4.25608 8.27306
2472 1 0.272318 3.25489 7.90609
160 1 2.06089 2.9572 8.19064
159 1 2.14779 3.66914 7.56937
548 1 3.32715 4.0636 7.48281
524 1 4.10535 3.47511 7.93541
405 1 3.12459 3.56358 8.49185
523 1 4.99599 3.86725 8.09019
463 1 6.07335 3.80469 7.39947
791 1 7.02072 2.95953 7.53273
877 1 7.01857 4.15999 7.42581
378 1 5.98896 3.44546 8.50953
701 1 7.90194 3.41562 7.41231
784 1 9.38167 3.60184 7.5152
774 1 8.69382 3.85085 8.56263
1105 1 10.64 3.79579 7.32417
1095 1 11.5732 3.20242 7.2731
1091 1 11.5221 3.67212 8.17105
1099 1 13.1087 3.39526 7.70436
1512 1 14.1478 3.97394 7.9349
1511 1 14.8689 3.468 7.57873
1378 1 15.4703 3.96236 8.55813
1436 1 16.5206 3.16122 8.04995
1417 1 15.927 3.84815 7.44296
1518 1 17.4756 3.87932 8.29014
1517 1 18.3129 3.77219 7.92778
1748 1 19.6007 3.23072 7.82036
1669 1 19.0545 3.94499 7.29261
1284 1 19.7519 4.1527 8.53863
1682 1 21.0268 3.89374 7.72652
1681 1 20.6682 3.32772 8.43082
1985 1 21.5926 2.87624 7.55381
1755 1 22.4434 4.17981 7.67615
2059 1 21.8573 3.54862 8.29005
2060 1 22.7952 3.49026 8.55497
2071 1 23.9826 3.34669 8.29482
2093 1 23.4425 4.2488 8.18217
2072 1 24.4235 4.15951 7.92778
2057 1 25.6959 4.15897 7.86513
2076 1 26.139 3.21716 7.72346
2058 1 26.6054 4.16791 8.06581
2061 1 27.5225 3.4677 7.55646
2393 1 28.0944 2.8803 8.29221
2471 1 29.628 3.36093 7.14772
145 1 28.5892 3.77063 7.95949
2324 1 29.6475 4.27628 7.74873
2323 1 0.308136 4.89033 7.93159
140 1 1.03337 5.56914 8.26501
147 1 2.59393 4.94892 7.62324
148 1 1.7386 4.6015 7.35423
136 1 2.10747 5.15897 8.48107
153 1 4.20329 4.54615 7.69964
154 1 3.73303 5.33217 7.44506
533 1 4.9819 5.28359 7.45467
528 1 5.12951 5.23274 8.51658
527 1 5.86491 4.84172 8.08008
878 1 6.91981 4.42009 8.39895
850 1 6.64094 5.3954 7.5567
773 1 8.47325 4.29188 7.76145
444 1 7.63466 5.10008 7.73317
766 1 8.77203 5.38742 7.76703
848 1 9.60352 4.57578 7.77521
847 1 10.0516 5.3581 7.32138
1106 1 10.8821 4.6523 7.59703
787 1 10.9268 5.58779 8.15087
1108 1 12.1669 5.68344 7.3381
1107 1 12.187 5.07636 8.11339
1100 1 12.8035 4.31133 7.53427
1176 1 13.2041 5.31605 7.79653
1020 1 13.1853 4.52866 8.53977
1117 1 14.4306 5.64885 7.96117
1118 1 14.8477 4.74201 8.05685
1426 1 15.8224 4.77571 7.87839
1425 1 16.7162 4.45802 7.58118
1502 1 16.4152 5.55766 7.33733
1042 1 15.8437 5.68616 8.24411
1361 1 17.0621 5.26757 8.26945
1424 1 17.8743 4.31338 7.24008
1439 1 18.1766 4.91269 8.04156
1406 1 18.5466 5.69462 7.32783
1440 1 19.0875 4.80826 8.0874
1685 1 19.865 5.32601 7.48008
1687 1 20.0423 4.29897 7.53017
1746 1 20.8338 4.76822 7.15636
1745 1 20.7544 4.83534 8.08512
1749 1 21.6721 5.69192 7.77292
1756 1 21.8068 4.75272 8.07364
1683 1 22.7743 5.29978 7.74147
2136 1 24.4145 5.44752 7.91352
2004 1 25.4816 5.13783 8.19422
2074 1 25.579 5.68558 7.35995
2048 1 26.6568 5.29427 7.91928
2047 1 27.5081 5.49098 7.60347
2062 1 27.675 4.39312 7.5189
2476 1 28.3618 5.60494 8.05351
146 1 28.5033 4.62173 8.32598
2375 1 29.7177 5.57681 7.14903
2376 1 28.8878 5.0651 7.26436
2461 1 0.719658 6.80709 8.09635
2462 1 0.705975 6.31803 7.23443
470 1 2.81071 5.99818 7.26524
139 1 1.69805 5.79145 7.66751
174 1 2.32605 6.23379 8.28492
231 1 2.52189 7.06641 7.63851
232 1 1.61232 6.81159 7.32055
540 1 3.34701 6.29656 7.9965
519 1 4.20974 6.21214 8.51552
286 1 4.57281 6.48137 7.40347
534 1 5.60504 6.01163 7.47877
609 1 5.49525 6.95454 7.75239
535 1 5.90453 6.0687 8.5058
610 1 6.48165 6.74779 7.70302
560 1 7.47971 6.28266 8.11361
525 1 8.20655 6.32235 7.37713
1184 1 9.75126 6.09194 8.2641
1183 1 9.68042 7.09508 8.41072
858 1 9.09681 6.90413 7.38279
932 1 11.2761 7.04687 7.33048
931 1 11.5295 6.48172 8.04531
1187 1 12.569 7.10846 8.49833
1175 1 13.0004 6.24985 7.75916
1193 1 13.4551 7.10482 8.08258
1041 1 15.2948 6.13579 7.5846
939 1 14.3797 6.63736 7.46031
1253 1 15.007 6.62474 8.45969
1509 1 16.4063 6.7608 8.08428
1429 1 17.4628 6.28386 7.56863
1430 1 18.0229 5.97797 8.24651
1851 1 19.1957 5.89086 8.21241
1831 1 18.5911 6.82285 7.84036
1736 1 19.8691 6.4737 7.60973
1750 1 20.8449 5.84362 7.37191
1803 1 21.3712 6.78937 7.24319
2083 1 20.057 6.13212 8.54621
1809 1 20.5574 7.03576 8.09002
1804 1 22.1972 6.60667 7.69757
2135 1 24.0189 6.34526 7.86282
1814 1 23.2284 7.05245 7.81907
2073 1 24.9296 6.31066 7.19598
2152 1 25.089 6.25619 8.50883
2156 1 26.0921 7.13497 8.35942
2456 1 26.542 7.10907 7.18636
2086 1 26.2017 6.19463 8.17896
2154 1 27.9449 6.63817 7.26415
2153 1 27.1723 6.54484 7.82004
2463 1 29.7144 5.81631 8.21854
2475 1 28.7733 6.2669 7.5569
221 1 0.886077 7.74976 7.26576
311 1 0.516854 8.04046 8.15869
161 1 1.55019 7.78162 8.05774
318 1 3.86377 8.08172 7.67013
539 1 3.43163 7.21281 8.36269
317 1 2.95223 8.13678 7.79375
612 1 4.80487 7.58357 7.23957
619 1 4.46713 7.30173 8.25649
298 1 4.84174 8.39334 7.87623
297 1 5.75823 8.04774 7.70119
876 1 6.93413 7.76902 8.04188
614 1 7.76845 8.20762 7.4945
948 1 8.2845 8.22152 8.31058
875 1 7.70475 7.28668 7.77857
929 1 8.69518 7.22405 8.23071
692 1 9.37824 7.8975 7.63861
691 1 10.2127 7.57238 7.68263
942 1 11.273 8.39129 8.18864
869 1 10.8806 7.43371 8.4343
1244 1 12.0292 8.38991 7.22011
870 1 11.7307 7.5311 8.09479
1274 1 12.7834 7.84637 7.69724
1179 1 13.4842 8.54005 7.43788
1165 1 14.9586 8.2378 7.62272
1344 1 15.4032 7.16332 7.54066
1343 1 15.9705 7.99246 7.55346
1584 1 16.6105 8.0517 8.43202
1824 1 17.958 7.56182 7.27442
1510 1 17.2174 7.24906 7.92477
1587 1 17.1572 8.22499 7.29523
1910 1 18.7316 8.2371 7.91225
1832 1 19.3063 7.30182 8.12793
2147 1 21.2986 7.61152 7.82077
1828 1 20.0812 7.99754 8.04409
1880 1 22.4872 7.50982 7.30328
2225 1 22.2703 8.19344 8.28256
1760 1 22.1611 7.14613 8.5702
2150 1 24.0289 7.75111 7.68182
2143 1 23.38 8.50605 8.31976
2142 1 25.4837 7.24082 7.16552
2221 1 24.9478 7.3938 8.17399
2227 1 25.8841 8.50079 7.80414
238 1 27.907 7.78506 7.33202
2299 1 27.3081 8.44145 7.83275
2300 1 28.0227 8.03062 8.3746
237 1 28.7937 7.56171 7.62588
2408 1 29.8209 7.20711 8.45615
312 1 29.8334 7.76813 7.54738
2289 1 0.474391 9.64279 7.96892
2290 1 1.42249 9.88854 7.84462
63 1 2.67223 9.82447 8.01577
2526 1 1.57601 8.71789 7.66656
55 1 3.52631 9.25786 7.91752
387 1 4.31617 9.79806 7.30485
379 1 5.53756 9.15438 7.68246
629 1 4.68141 9.72285 8.38648
380 1 6.42002 9.5932 7.83255
626 1 7.32261 8.91059 8.27187
613 1 7.46009 9.11867 7.17049
687 1 8.42084 9.22015 7.77898
947 1 9.06132 8.6996 8.51803
688 1 9.39979 9.0852 7.6235
1243 1 11.2599 8.99097 7.26537
700 1 10.2102 9.86013 7.55499
941 1 10.47 8.76839 7.83602
1567 1 12.473 9.43316 7.60674
1004 1 11.7118 9.90092 8.23242
1273 1 12.5681 8.59346 8.33424
1180 1 13.3741 9.31463 8.1457
1321 1 14.428 9.7401 7.4976
1594 1 15.0699 9.67465 8.46593
1593 1 15.4622 8.80406 8.43107
1342 1 16.2806 9.00487 7.77282
1341 1 16.4655 9.89213 7.49822
1912 1 17.4872 8.68815 8.16252
1350 1 17.4381 9.70395 7.98583
1911 1 17.9975 8.93405 7.42346
1892 1 18.9617 9.82607 7.79151
1604 1 19.5871 8.87072 7.9041
2148 1 21.0879 8.58468 7.75937
1900 1 20.1921 9.79864 7.61809
2229 1 21.1133 9.79308 8.13414
1876 1 21.786 9.3021 7.27463
2232 1 22.2206 9.36084 8.26322
2231 1 22.8679 9.12461 7.52087
2205 1 24.1527 9.01624 7.82633
2206 1 25.0224 8.96473 8.24557
2215 1 26.8555 9.95416 7.82668
2484 1 25.868 9.68696 8.14581
2487 1 27.8423 9.40712 7.75241
2284 1 29.4516 9.65267 7.51777
2488 1 28.6775 9.52745 8.23336
2524 1 28.6524 8.67664 7.48812
2523 1 29.4681 8.66733 8.01018
3 1 0.567477 0.545 9.77067
65 1 0.941333 0.156715 8.83083
306 1 1.48983 0.955899 9.47972
11 1 2.45411 0.85128 9.60744
64 1 2.16845 0.0658546 8.82319
73 1 2.94048 0.934045 8.74064
639 1 3.47358 0.670846 9.97974
6 1 3.73461 0.105433 8.84282
77 1 4.0882 1.3663 9.46416
606 1 4.66308 0.804912 8.73429
386 1 5.44309 0.923735 9.44162
385 1 5.61759 0.231942 8.87931
712 1 7.14143 1.33916 8.80568
384 1 6.49957 0.886722 9.85892
389 1 7.2009 0.129116 9.09034
926 1 8.16629 0.0568119 9.47786
715 1 8.99829 0.656165 9.3193
1025 1 10.9261 0.942755 9.16875
1038 1 10.343 0.181096 9.83203
1026 1 11.234 0.00477092 9.16979
1262 1 11.8279 0.737253 8.79644
1592 1 13.081 0.725289 8.76534
1355 1 14.0004 0.66935 9.31585
966 1 13.0653 0.159728 9.72496
1030 1 12.9519 1.27869 9.93064
963 1 15.6987 0.563937 9.4797
1338 1 14.8903 0.65886 8.61378
964 1 15.0391 1.20418 9.49698
1577 1 16.0476 0.694328 8.62831
1357 1 16.7568 0.33763 9.48675
1329 1 18.0892 1.04055 8.6766
1330 1 17.2413 0.623907 8.58308
1358 1 17.7133 0.500317 9.63679
1758 1 19.3332 0.58422 9.00752
1618 1 18.7274 1.04592 9.867
1676 1 20.3369 0.687007 9.62641
1651 1 21.0755 0.480098 8.91104
1901 1 22.4924 1.14804 9.64921
2092 1 22.163 0.216417 9.13683
2238 1 23.1967 0.686787 8.58497
1915 1 22.8646 0.0927839 9.91326
2237 1 23.6024 0.809332 9.46023
1991 1 24.5919 0.968754 9.65225
1999 1 25.134 0.202338 9.20848
1989 1 25.3286 1.33685 8.63096
1935 1 26.1543 0.445197 9.7808
2483 1 26.4856 0.0142061 8.77415
2321 1 27.5146 1.04923 9.30814
2481 1 28.4206 0.984521 8.92714
2270 1 28.6008 0.882393 9.92104
2269 1 29.5407 0.950752 9.61611
2306 1 29.7678 0.0989691 8.81096
2482 1 28.7518 0.0794856 9.13507
157 1 1.37059 2.45902 8.99148
305 1 0.649269 1.49483 9.25355
478 1 2.2558 2.75377 9.30555
80 1 3.79189 2.47238 8.62405
395 1 3.01957 1.81126 9.51528
396 1 3.44782 2.66298 9.62846
454 1 5.09126 2.01201 8.61167
465 1 5.13002 1.82106 9.82521
472 1 4.61749 2.50389 9.3545
451 1 5.82807 2.5458 9.10267
383 1 6.21637 1.65812 9.33187
711 1 7.98205 1.4466 9.23532
950 1 7.42255 2.22237 9.76956
768 1 7.94906 2.76873 8.9968
713 1 9.26099 1.90147 9.25849
695 1 10.2639 1.71075 9.17219
1267 1 11.6814 1.66449 9.35826
1036 1 12.0972 2.49006 9.85153
1035 1 11.6005 2.72598 9.03107
1102 1 13.9474 2.40942 8.79771
1101 1 13.144 1.98384 9.0936
1340 1 13.9624 1.72288 9.66631
1044 1 13.0415 2.84974 9.87324
1339 1 14.649 2.34443 9.64775
1363 1 15.6519 2.5449 9.97819
1432 1 16.8529 1.50163 9.16483
1364 1 15.7749 1.93471 9.25754
1302 1 16.5341 2.56008 9.16195
1367 1 17.6036 2.53581 9.79153
1368 1 17.878 1.60193 9.52385
1431 1 17.3566 2.0912 8.58789
1285 1 18.5473 2.2893 8.6902
1757 1 19.2079 1.55443 9.0228
1606 1 19.8211 1.55255 9.73586
1286 1 18.5915 2.55998 9.58898
1610 1 19.5135 2.64503 8.89761
1605 1 20.4311 1.59557 9.00954
1696 1 20.4242 2.61001 9.89255
1699 1 21.0472 2.50347 8.85833
1693 1 21.6064 1.66186 8.96566
1995 1 22.4728 2.73298 9.21256
2055 1 23.2299 1.66747 8.92937
1902 1 22.8604 2.05241 9.82623
2069 1 23.3768 2.63845 8.85132
1992 1 24.0115 1.73723 9.84817
1982 1 24.9049 2.44442 9.14946
2008 1 25.5804 1.47949 9.92626
2080 1 26.7401 1.91404 9.2002
2079 1 25.9224 2.41673 9.49766
2322 1 27.6121 1.79778 9.83138
2390 1 27.6157 2.74248 9.28787
2243 1 28.5683 1.90879 9.56811
2249 1 29.6955 1.71415 8.81595
2250 1 29.745 2.52858 9.30561
158 1 0.795438 3.01572 9.6349
90 1 0.816514 3.55442 8.70887
132 1 0.030912 3.98154 9.03565
89 1 1.61825 3.54261 9.22231
416 1 2.5961 3.71547 9.5026
545 1 3.92723 3.55463 9.30408
471 1 4.99386 3.0735 8.65819
546 1 4.61145 4.11549 9.01053
543 1 5.35387 3.51978 9.54046
377 1 6.32229 4.03554 9.21603
468 1 6.60336 3.09932 9.61721
531 1 7.65196 3.77221 8.71727
786 1 7.43946 3.66331 9.94971
798 1 8.49471 3.48435 9.86881
1115 1 9.30915 3.31155 9.1304
1005 1 10.2633 2.9498 9.40754
1110 1 10.485 3.721 8.72905
855 1 10.5917 4.06243 9.69848
1058 1 12.0992 3.51388 9.6911
1019 1 12.4741 3.88252 8.63258
1047 1 13.0149 4.02329 9.59799
1031 1 14.0637 4.15767 9.00343
1032 1 13.5501 3.41495 8.69695
1051 1 14.0437 3.36771 9.85335
1437 1 15.1637 3.77212 9.8059
961 1 14.7193 3.28346 8.96917
1377 1 15.7813 3.20767 9.12352
1835 1 16.3039 4.09278 9.56981
1435 1 16.5364 4.02485 8.57339
1295 1 17.7673 3.67986 9.75476
1301 1 17.2757 3.11055 9.0592
1296 1 18.6924 3.55757 9.92322
1294 1 19.6863 3.52047 9.4767
1609 1 18.8062 3.32354 8.81087
1695 1 20.7529 3.58125 9.84553
2067 1 21.6679 4.12989 9.98552
2068 1 21.7055 3.57575 9.29504
1940 1 22.6433 3.68064 9.60994
2070 1 23.6692 2.94887 9.6579
2088 1 23.7132 4.0343 9.52587
2077 1 25.1926 3.44732 8.57842
2012 1 24.6703 3.6789 9.68547
2387 1 25.6997 3.72636 9.43943
2388 1 26.2113 3.50911 8.71079
2389 1 26.8275 3.25596 9.61521
2394 1 28.1245 3.69238 8.85765
131 1 29.2499 3.58857 8.87308
71 1 1.101 4.72324 9.05655
2464 1 0.181261 5.60985 9.0963
83 1 1.30232 5.42359 9.87773
2396 1 1.88995 4.67023 9.71303
226 1 2.80286 5.27529 9.60464
406 1 2.96355 4.48383 8.69619
135 1 2.96071 5.54574 8.59204
485 1 3.40748 4.38994 9.78078
551 1 4.00176 5.1724 9.26964
530 1 5.43783 4.6447 9.50299
529 1 6.15127 5.20611 9.29611
785 1 7.55847 4.4761 9.59025
532 1 7.91495 4.70359 8.62423
790 1 8.44371 5.453 9.09841
776 1 9.67253 4.2982 8.96458
795 1 8.69168 4.34737 9.47924
789 1 9.40421 5.42653 9.37027
775 1 9.92606 5.1839 8.58189
856 1 10.5518 5.01754 9.47953
1109 1 11.1003 4.51253 8.68848
1129 1 11.5498 4.68443 9.72377
1199 1 12.3296 5.53343 9.88289
788 1 11.5882 5.64624 8.87818
1130 1 12.3084 4.9057 9.20205
1111 1 13.5429 5.43297 9.01256
1112 1 13.717 4.90793 9.78047
1446 1 15.6138 5.38571 9.77454
1445 1 15.3043 4.71036 9.19759
1362 1 16.5098 5.07004 9.05562
1520 1 17.5684 5.31046 9.33506
1836 1 17.1991 4.33299 9.27572
1433 1 18.2323 4.75668 9.89853
1434 1 18.1779 4.34824 9.0174
1845 1 19.9884 5.49958 9.65868
1283 1 19.1058 4.53991 9.22212
1379 1 18.7309 5.66114 9.50155
1763 1 21.1356 5.36741 9.89878
1370 1 20.0286 5.06846 8.72145
1369 1 20.5318 4.46181 9.27905
1939 1 22.4288 4.36279 8.9922
1834 1 22.1345 5.05526 9.77339
1833 1 21.5219 4.79535 9.04099
2145 1 22.6285 5.44987 8.88848
2094 1 23.8711 4.79368 8.70407
1761 1 23.2311 4.7986 9.96373
2146 1 23.4728 5.67439 9.16989
2087 1 24.2815 4.79172 9.67093
2078 1 24.9396 4.32817 8.92979
2001 1 25.557 4.66096 9.81484
2151 1 24.7269 5.40789 8.9499
2329 1 26.822 4.66557 9.45864
2003 1 26.0172 4.61073 8.80679
2330 1 27.8 4.44547 9.522
2467 1 27.5759 5.11853 8.7212
2468 1 28.2558 5.47796 9.26067
86 1 29.3895 5.03606 9.65787
85 1 29.5304 4.89502 8.65402
2404 1 0.834358 6.50307 9.63014
230 1 1.83083 6.97412 9.33536
173 1 1.81451 5.93959 9.12326
225 1 2.60303 6.25667 9.71182
552 1 3.59625 6.03349 9.49215
520 1 4.07064 6.91901 9.14915
632 1 3.37661 7.05554 9.85455
536 1 5.17949 6.6025 8.8957
627 1 5.16057 5.76494 9.65486
954 1 6.16697 7.06834 8.73373
871 1 6.82096 6.22999 9.5316
872 1 5.89006 6.46989 9.65678
538 1 7.77899 6.69705 9.57691
930 1 8.3985 6.42479 8.63419
474 1 7.78133 5.72556 9.92116
559 1 7.44978 5.74954 8.891
554 1 9.1738 6.53508 9.47822
842 1 10.7066 6.2952 8.87191
841 1 10.2941 5.99973 9.73383
1276 1 10.2785 7.05159 9.42189
866 1 11.8398 6.59089 9.2067
865 1 12.6075 6.12049 8.74766
1196 1 13.3512 5.85737 9.98553
1194 1 13.6401 6.46895 8.76497
1530 1 14.1175 7.03298 9.67755
1195 1 13.1464 6.73082 9.58039
1596 1 15.3653 7.04092 9.3615
1120 1 14.5718 5.78244 9.05943
1046 1 16.3534 6.82641 9.40173
1045 1 16.7619 6.10277 8.97559
1830 1 17.8868 6.38666 9.38234
1852 1 18.9123 6.49459 8.94474
1846 1 19.9918 6.49443 9.4831
2084 1 20.9885 5.88286 8.59292
1810 1 21.1517 7.04831 8.84872
1817 1 21.8846 5.99363 9.41665
1818 1 22.6722 5.8602 9.95612
1759 1 22.5524 6.86371 9.40827
1813 1 22.9258 6.50256 8.57498
2132 1 24.0903 7.06063 8.59568
2131 1 23.695 6.70929 9.37553
2182 1 24.5633 6.0442 9.98775
2421 1 25.6712 5.78135 9.92476
2157 1 24.5581 7.13214 9.69868
2416 1 26.665 5.93178 9.86384
2155 1 26.2463 6.56744 9.13024
2085 1 27.045 5.97411 8.6421
2406 1 27.018 6.91845 9.96275
2470 1 28.0617 6.4563 8.74497
2469 1 29.0267 6.26591 8.8381
2494 1 28.7586 6.87724 9.63137
2478 1 29.8705 7.10627 9.51544
2477 1 0.668133 7.33469 9.00917
249 1 0.51787 8.20376 9.5138
250 1 1.32194 7.77103 9.78142
162 1 2.08663 8.30713 8.70107
229 1 2.45749 7.30828 8.66288
234 1 2.30209 8.19648 9.87722
310 1 3.11554 8.00578 9.21553
631 1 3.97149 7.78156 9.9208
620 1 4.10444 7.94167 8.93339
541 1 5.04031 7.45029 9.62652
601 1 5.36912 7.8898 8.68559
542 1 4.79676 8.36567 9.53924
953 1 6.26815 8.05252 8.81859
558 1 6.79131 7.45001 9.47779
557 1 7.08598 8.3313 9.18965
397 1 5.84975 8.52092 9.6241
537 1 7.5103 7.17043 8.76001
959 1 8.04334 8.18783 9.45333
960 1 8.50989 7.34255 9.39241
937 1 9.46033 7.7117 9.25441
882 1 11.0116 7.79177 9.39048
881 1 10.3372 8.15523 8.84989
1033 1 12.2604 7.5911 9.62991
1034 1 12.6169 8.46157 9.67467
1188 1 13.2293 7.67915 8.93841
1516 1 14.1078 8.08421 9.43279
1595 1 15.6375 7.4789 8.61918
1254 1 14.4984 7.41557 8.72297
1586 1 15.2972 8.13199 9.32246
1597 1 16.6012 7.86476 9.55326
1503 1 17.5861 7.60485 9.41426
1909 1 18.4808 7.68424 8.59769
1504 1 17.6198 8.54861 9.40961
1514 1 19.1787 7.29816 9.581
1908 1 18.6537 8.25037 9.66702
1822 1 19.5018 7.97218 8.89256
1821 1 20.3479 7.58054 9.28457
1842 1 21.8908 7.46671 9.9152
2226 1 21.6153 8.31899 8.99837
2239 1 22.8765 7.89669 9.87978
2144 1 23.0468 7.73043 8.82497
2081 1 23.786 8.26488 9.48112
2222 1 24.5714 8.18846 8.688
2158 1 25.3645 7.46741 9.19484
2492 1 26.923 8.18826 8.75685
2405 1 26.4994 7.51724 9.36354
2228 1 25.9228 8.33167 8.71074
2490 1 26.0082 8.56162 9.96793
320 1 27.769 7.4344 9.50157
2485 1 28.7144 7.24217 8.58663
2486 1 28.8131 7.86277 9.28806
2407 1 29.7047 8.07029 8.81476
2480 1 0.264832 8.89106 8.77151
314 1 1.53831 9.85486 9.70104
313 1 1.46765 9.05271 9.20801
233 1 2.4818 9.10967 9.73036
56 1 2.99806 9.09746 8.72065
392 1 4.1808 9.66287 9.74796
5 1 3.05968 9.95124 9.4968
309 1 3.64466 8.70922 9.51477
602 1 5.56608 8.87311 8.64036
630 1 4.32744 8.9341 8.77518
327 1 5.15803 9.4498 9.54686
328 1 6.08588 9.63098 9.71207
561 1 6.5587 9.14449 8.83402
562 1 6.96757 9.2002 9.66635
625 1 7.77824 9.21564 9.01541
925 1 8.68849 9.73009 8.75994
716 1 9.40469 9.9027 9.43647
938 1 9.60186 8.68616 9.41449
893 1 8.64669 9.086 9.6043
934 1 10.342 9.57689 8.81005
1037 1 10.2267 9.27887 9.97327
1003 1 12.5733 9.82326 8.65941
1272 1 11.6283 9.04637 9.06312
1590 1 13.5879 8.97547 9.15112
1515 1 14.4927 8.83952 8.92753
1351 1 14.7801 9.78734 9.48902
1352 1 15.548 9.28085 9.55049
1523 1 16.6721 9.22258 9.81395
1583 1 16.4246 8.85514 8.95622
1578 1 16.525 9.86309 8.66278
1546 1 18.4079 9.57629 9.68307
1674 1 18.3196 9.99064 8.69421
1907 1 18.5296 8.70465 8.80194
1673 1 17.5428 9.55596 9.03035
1602 1 19.5937 8.85742 9.4262
1601 1 19.1622 9.4882 8.84864
1827 1 20.3953 8.653 8.62688
2230 1 21.3096 9.28733 8.97676
1680 1 20.7312 9.78635 9.75776
1679 1 20.2557 9.67799 8.93135
2091 1 21.7906 9.69783 9.82479
1929 1 23.8545 9.60537 9.76514
2082 1 22.9965 8.83598 9.57113
2212 1 23.2872 9.75818 8.95112
2211 1 24.2458 9.48212 8.78116
2000 1 25.6255 9.43304 9.26883
1928 1 26.5958 9.26317 9.57407
2491 1 26.9328 9.09997 8.57987
2320 1 27.5005 9.96239 9.70001
244 1 27.7023 9.99137 8.70326
243 1 27.9045 9.10644 8.90389
2479 1 29.3994 9.08945 8.90108
2418 1 29.1345 8.92402 9.92692
247 1 29.766 9.7111 9.79544
ITEM: TIMESTEP
8000
ITEM: NUMBER OF ATOMS
2532
ITEM: BOX BOUNDS pp pp pp
0.0000000000000000e+00 3.0000000000000000e+01
0.0000000000000000e+00 1.0000000000000000e+01
0.0000000000000000e+00 1.0000000000000000e+01
ITEM: ATOMS id type x y z
4 1 0.920956 0.2429 0.581955
7 1 2.20157 1.08536 1.36107
8 1 1.96332 0.705689 0.490619
403 1 4.20049 1.27516 0.912194
640 1 3.17228 0.495239 0.894141
376 1 4.29265 0.12474 0.817608
461 1 5.32725 0.130897 0.796728
404 1 5.13263 1.26594 0.804713
375 1 4.75573 0.539834 0.0877421
944 1 6.53355 0.177301 0.546187
705 1 6.65056 1.17028 0.91475
706 1 7.41049 0.588236 1.15481
949 1 7.48803 1.38005 0.185131
943 1 7.36774 0.319626 0.0566959
720 1 8.37566 0.858413 0.495818
719 1 9.20901 0.380639 0.413144
1039 1 9.71977 1.21452 0.0113553
1040 1 10.6684 1.3078 0.152929
890 1 10.1557 0.805425 0.996683
1209 1 11.5877 0.223273 0.172211
974 1 12.1223 1.08437 0.464356
662 1 11.6714 0.531578 1.36851
973 1 12.0882 1.39865 1.36273
965 1 13.4331 0.341111 0.593619
1029 1 13.0945 1.25196 0.879213
1289 1 14.1108 0.969232 1.39705
1356 1 14.3765 0.550444 0.21903
1211 1 15.1606 0.0470112 1.07713
1282 1 15.8071 0.944705 0.591157
1543 1 17.1795 1.07749 0.298736
1298 1 17.6942 1.26793 1.25001
1617 1 18.2294 0.695245 0.652348
1544 1 17.3298 0.135003 0.517862
1843 1 19.2481 0.131842 0.146407
1613 1 19.2863 0.424957 1.14334
1614 1 19.3744 1.3405 1.10314
2065 1 20.2731 0.52403 0.70875
2066 1 21.1492 0.060446 0.685784
1675 1 21.0073 1.12348 0.241233
1916 1 22.3268 0.248764 0.704744
1612 1 21.5258 1.24052 1.23739
2009 1 23.2435 1.06201 0.404799
2236 1 23.954 0.549306 1.01166
2235 1 24.5784 1.31382 0.935537
1988 1 25.4645 0.867309 0.714828
1987 1 26.396 0.670564 0.980175
1936 1 26.8386 1.06345 0.13813
2496 1 27.6538 0.697139 0.649448
2495 1 28.2165 0.087288 1.22455
2246 1 29.4209 1.21432 0.5292
2245 1 28.7313 1.38801 1.17267
2265 1 29.1713 0.211125 0.558599
91 1 0.677452 2.08088 0.203827
12 1 2.13241 1.56499 0.0161746
14 1 1.51265 1.6919 1.06149
13 1 1.9455 2.55602 1.03936
477 1 2.52898 2.60166 0.228985
96 1 3.0963 2.51444 1.15772
330 1 4.28556 2.26727 1.14755
95 1 3.01623 1.6308 0.763675
78 1 4.09944 2.03582 0.18992
475 1 5.61278 2.28542 1.07241
466 1 5.09486 2.71118 0.265629
476 1 6.02962 1.92196 0.324387
651 1 6.75267 2.54081 0.796357
718 1 8.3922 2.69388 0.525547
731 1 8.00569 1.65143 1.06639
717 1 9.00554 2.16159 1.06225
733 1 9.68829 2.41101 0.0766313
714 1 8.80169 1.80531 0.0354551
800 1 10.7294 2.71237 0.566941
664 1 10.5827 1.76046 1.19598
969 1 12.5519 2.03461 0.63682
970 1 11.6128 2.089 0.699123
647 1 14.0331 1.9637 0.708412
1281 1 14.9661 1.43631 0.516221
1307 1 16.4236 1.92127 0.176055
1297 1 16.731 1.67253 1.26866
1308 1 15.7959 2.14199 0.877399
1461 1 16.7372 2.64578 0.872427
1387 1 18.5402 1.75157 0.582153
1388 1 17.7213 2.21315 0.784669
1384 1 19.1819 2.607 1.14467
1621 1 20.2336 1.81109 0.629645
1616 1 21.1963 2.48328 0.963709
1703 1 21.6035 1.93275 0.0676201
1704 1 22.2583 1.52837 0.656227
2010 1 23.4776 1.44279 1.22181
1678 1 24.0406 2.34429 0.781885
1934 1 22.9797 2.57725 0.679224
1677 1 24.6691 2.65207 1.37593
2007 1 25.6932 1.96405 0.773718
2023 1 24.8397 2.54431 0.120945
2253 1 26.6679 2.38629 0.324989
2254 1 27.0854 1.7419 0.915388
2248 1 28.0285 2.30889 0.677541
92 1 29.9238 2.65287 0.255721
16 1 29.734 2.04937 1.09815
2244 1 29.0769 2.14596 0.341641
2411 1 0.244093 4.11259 0.0813262
2395 1 1.23603 4.08695 0.110433
2397 1 0.855094 2.98649 0.782189
163 1 2.048 3.43629 0.467741
98 1 2.28779 3.4768 1.42156
415 1 3.13387 3.59927 0.363196
393 1 3.69835 3.37024 1.34097
394 1 4.00185 3.02032 0.445131
329 1 4.71668 3.01666 1.40479
544 1 4.97859 3.66575 0.456172
459 1 5.88878 4.2631 0.553609
417 1 6.01354 3.69308 1.38425
467 1 6.23032 3.32013 0.474768
722 1 7.76249 3.8237 1.35271
797 1 8.40077 4.17101 0.53141
734 1 9.70203 3.01372 0.913534
793 1 8.82163 3.42552 1.05111
859 1 9.54902 4.07696 0.166984
799 1 10.8381 3.65605 0.723116
1057 1 12.2987 3.98508 0.55662
740 1 12.075 3.2064 1.34699
1043 1 13.1929 2.9815 0.797226
1053 1 13.9468 3.59418 1.29111
1062 1 13.0552 4.02084 1.36053
1048 1 13.5244 4.17605 0.423222
1052 1 14.4839 2.91985 0.587162
1065 1 15.1611 4.0065 1.14723
1450 1 15.5747 3.11037 1.01501
1462 1 16.4196 3.24046 0.167882
1776 1 17.0745 3.90972 0.497551
1396 1 18.1561 3.17849 1.04504
1293 1 19.3956 2.93526 0.184696
1708 1 19.5245 3.8151 0.865075
1707 1 20.2984 3.22501 0.878495
1933 1 22.2393 3.04081 0.451279
1762 1 22.8013 4.05269 0.549382
1780 1 21.7067 3.54248 1.27461
2006 1 24.1359 3.35664 0.729943
2024 1 25.5933 2.94088 0.625721
2011 1 25.0174 4.01356 0.550822
2410 1 26.3431 4.07694 0.217528
2346 1 26.5591 3.28713 0.935405
2018 1 26.0311 4.2525 1.20956
2313 1 27.4623 3.20775 0.538457
2409 1 27.261 4.26686 0.480948
2314 1 28.1039 3.58146 0.0623796
2345 1 27.2344 3.69913 1.42654
2318 1 29.2125 4.15804 0.122081
2317 1 29.0215 3.59102 0.834876
2398 1 29.9609 3.08196 1.12394
2331 1 29.9618 4.11784 1.24296
2412 1 0.459472 5.02119 0.213377
88 1 1.168 5.00484 1.06344
164 1 2.38923 4.32138 0.70007
84 1 2.05741 5.4482 0.375957
156 1 3.18929 5.44886 0.549161
155 1 3.41967 4.53338 0.829917
481 1 4.27829 5.46443 0.494057
401 1 5.19831 4.76291 1.38316
628 1 5.46433 5.34849 0.422871
486 1 4.32882 4.36343 0.0722679
721 1 7.05217 4.36766 1.05294
549 1 6.52656 5.31456 1.32039
550 1 6.79408 5.44495 0.429602
460 1 6.69655 4.37391 0.122987
473 1 7.85376 5.06172 0.614133
867 1 8.81944 5.63849 1.21908
796 1 8.83958 5.00849 0.181382
802 1 11.2725 5.64564 0.153316
1186 1 10.6486 5.45414 0.996234
860 1 10.0821 4.80955 0.435317
1200 1 12.77 4.8561 0.349646
1221 1 11.7622 5.11488 0.877931
1114 1 13.7508 5.19446 1.0491
992 1 14.8625 5.05871 0.84774
1438 1 14.5751 4.36308 0.175927
1372 1 16.7503 4.93379 0.202173
991 1 15.8391 4.84353 0.835822
1452 1 16.9453 5.47905 1.1489
1451 1 17.0021 4.50104 1.24466
1519 1 17.5252 5.53356 0.212147
1775 1 17.8977 4.34025 0.840225
1380 1 18.9808 5.45761 0.407008
1698 1 19.8677 4.94739 1.10478
1697 1 20.1973 4.58379 0.330042
1691 1 21.1922 4.3663 1.01585
1692 1 20.906 5.25461 0.961244
2013 1 22.2359 4.60997 1.3061
1767 1 22.4351 5.65108 1.05522
2005 1 23.9314 4.31817 0.622741
2106 1 23.1736 4.99488 1.09733
2104 1 24.1639 4.9951 1.32555
2017 1 25.2275 4.74929 1.32493
2002 1 24.9453 5.19778 0.390779
2422 1 26.0243 5.28155 0.583811
2328 1 28.2547 4.37581 1.17544
2460 1 27.3432 4.76796 1.30669
2392 1 27.6387 5.43861 0.011453
2391 1 28.45 5.18617 0.395345
2332 1 29.6522 4.98197 0.880198
87 1 0.734329 5.82368 1.29223
2403 1 0.294975 6.25072 0.377124
152 1 0.727491 7.1043 0.463328
171 1 1.45994 6.31658 0.580538
175 1 2.46323 5.9852 1.14627
172 1 2.10658 6.90453 0.361562
176 1 3.11285 6.58293 0.666847
482 1 4.3155 6.41751 0.423368
487 1 5.39241 6.8319 0.647182
488 1 5.92981 6.14124 0.956042
563 1 6.75259 6.92434 0.464517
810 1 7.62667 6.48302 0.684725
868 1 8.62172 6.25429 0.482759
863 1 9.57652 5.82942 0.420707
806 1 9.23407 6.89259 1.25132
553 1 9.39222 6.92866 0.272496
864 1 10.2844 6.41686 0.698458
1123 1 10.9808 6.94884 1.16606
955 1 11.2903 6.81208 0.0582548
801 1 11.4613 6.15238 0.997838
956 1 12.2423 6.51864 0.272697
1143 1 13.0816 6.51451 1.1971
1529 1 13.9897 6.93647 0.589073
1113 1 14.1884 6.00367 1.25306
1119 1 14.6376 5.8831 0.0121211
1443 1 15.5128 5.93959 0.794556
1218 1 15.182 6.74932 0.380686
1131 1 14.9245 7.02713 1.33979
1444 1 16.3241 6.46541 0.813372
1371 1 16.5923 5.86896 0.00124241
1442 1 17.3896 6.58232 1.17378
1441 1 18.2333 6.18842 0.775018
1829 1 17.4826 6.76026 0.143723
1777 1 19.7256 6.00229 1.09235
1837 1 19.8659 7.07524 0.451058
1513 1 19.0895 6.46651 0.0283555
1840 1 21.2978 6.03299 1.39866
1839 1 21.2274 6.99659 1.14329
1764 1 20.5162 5.98595 0.39128
1841 1 21.6328 6.61761 0.280728
2105 1 23.4857 5.75111 0.45732
1849 1 23.0952 6.76323 0.870987
2096 1 24.2406 6.13289 1.24361
2181 1 25.0991 6.56426 0.720463
2415 1 27.0737 6.21827 0.676198
2185 1 25.9499 7.11742 0.195422
2186 1 26.1096 6.6477 1.00286
2401 1 28.0156 5.77239 1.30759
2423 1 27.6914 7.02373 0.759855
2493 1 28.1381 6.33246 0.0480876
177 1 28.746 6.61519 0.795408
2473 1 29.4165 5.96864 0.922978
2474 1 29.0977 6.04195 0.0190217
178 1 29.5733 7.01169 0.530682
151 1 1.23231 7.42227 1.2124
2504 1 0.708497 8.15765 0.501593
242 1 1.40601 8.4348 1.16918
246 1 2.21031 7.87342 0.822078
634 1 3.12287 8.44044 0.40536
633 1 3.25422 7.56071 0.898494
257 1 4.44949 7.32871 0.803938
258 1 4.28661 8.05211 1.42412
638 1 5.22064 8.25499 0.513505
398 1 6.03733 7.68084 0.0778177
381 1 6.92645 8.30025 0.176676
564 1 6.61207 7.7201 0.914113
958 1 8.37371 7.2508 0.78813
957 1 7.63955 7.54835 0.148706
657 1 7.81256 8.14066 0.929425
809 1 7.44798 7.24486 1.26196
902 1 9.38805 7.83668 1.09944
894 1 8.90141 8.20901 0.0631655
952 1 10.5179 7.99536 1.23091
1275 1 10.2358 7.80453 0.0537021
1280 1 11.5628 7.71177 0.639793
1279 1 11.5348 8.55893 1.07525
1354 1 13.0256 7.87271 0.737393
1353 1 13.9241 8.23598 0.846515
1217 1 14.8452 7.63317 0.442797
1232 1 14.8636 8.28901 1.33527
1521 1 15.8638 7.5493 1.09577
1598 1 16.7064 7.32776 0.348993
1525 1 16.5638 8.30301 1.06701
1585 1 15.8058 8.04536 0.0344021
1447 1 18.3925 7.37538 0.280266
1448 1 18.1286 7.28777 1.23779
1599 1 18.4719 8.18904 1.34457
1528 1 17.8709 8.25039 0.429111
1600 1 19.1828 8.03571 0.740358
1913 1 20.4451 7.81617 1.14471
1917 1 20.1017 8.20269 0.224061
1838 1 20.7879 7.21415 0.127751
1766 1 21.5587 8.23849 1.09642
1765 1 21.9981 8.43971 0.238578
1850 1 22.9289 7.5513 1.33369
2240 1 23.686 7.52515 0.127256
2159 1 23.6339 8.46204 0.645688
2160 1 24.3421 7.85739 0.870421
2163 1 25.1365 8.06327 0.164002
2315 1 25.8121 7.7836 1.23027
2489 1 26.4783 8.0104 0.590036
2424 1 26.9055 7.28067 1.25758
272 1 27.5958 8.01165 1.03278
267 1 28.394 8.00353 0.214618
319 1 27.2827 8.16594 0.00125054
268 1 28.9945 7.81163 1.03401
2503 1 29.9907 8.10141 1.07359
2417 1 29.55 8.11902 0.159967
240 1 0.0295444 9.88971 1.18265
241 1 0.616462 8.99122 1.05901
248 1 0.59796 9.32714 0.0350132
9 1 2.67531 9.62894 0.502343
245 1 2.29249 8.76394 1.08687
322 1 1.57374 9.50562 0.816347
321 1 1.50656 8.79799 0.215471
10 1 3.23611 9.27855 1.1725
462 1 5.6352 9.23487 0.999502
391 1 4.51619 9.09359 0.360495
573 1 4.35816 9.34205 1.36362
382 1 6.6099 9.09707 0.630609
891 1 7.52048 9.21592 1.06777
658 1 8.38166 8.7878 1.41346
650 1 8.5148 9.63279 0.721287
892 1 7.91869 8.89455 0.220921
649 1 9.22012 9.05264 0.435687
883 1 9.83617 9.77632 1.08981
1210 1 10.9838 9.74091 0.724635
951 1 10.4061 8.88465 0.985688
1203 1 12.8538 8.8191 0.881911
1259 1 12.2477 9.73712 1.0435
1260 1 12.2289 9.42505 0.154397
1271 1 11.435 8.6245 0.00744192
1204 1 13.6089 9.24403 1.33534
1589 1 13.7218 9.25543 0.056152
1347 1 15.3951 9.11101 0.659643
1348 1 14.6712 8.67398 0.188742
1212 1 14.489 9.48554 0.767329
1524 1 16.2902 9.94762 0.353018
1291 1 16.9809 9.61236 1.39138
1527 1 17.628 9.12672 0.184609
1844 1 19.8364 9.46251 0.415508
1545 1 18.7899 9.03922 0.378214
1847 1 19.063 9.44691 1.32229
1918 1 20.8534 8.85554 0.303456
1914 1 20.1014 8.71442 1.07694
2234 1 21.8457 9.29857 1.14887
2233 1 22.6515 9.29973 0.484588
1857 1 22.8493 9.83743 1.3818
1930 1 23.7293 9.44366 0.734098
1942 1 24.9717 9.78643 0.0428837
2164 1 24.5442 8.8288 0.279486
2316 1 25.6192 8.72709 1.06754
2319 1 26.9049 9.95814 0.418349
1927 1 26.7424 9.01372 0.575812
1941 1 25.7296 9.71866 0.666153
271 1 27.9561 8.92926 0.788357
2266 1 28.3567 9.91983 0.162935
239 1 29.7057 9.11098 0.833549
256 1 0.677253 0.461589 1.71929
119 1 0.692168 1.33647 2.10438
120 1 1.65467 1.08911 2.29835
19 1 1.63719 0.152515 1.70742
574 1 3.86666 0.120996 1.75447
266 1 3.00238 0.517262 2.35276
399 1 5.07251 0.022669 1.83753
412 1 5.63534 1.03903 2.45162
346 1 4.78366 1.05167 1.83743
400 1 6.00268 0.327812 1.55452
337 1 6.83307 0.927904 2.13348
578 1 6.29756 0.240786 2.61889
646 1 8.37814 0.75802 1.56093
568 1 7.72893 0.417418 2.39268
900 1 8.89918 0.372347 2.55972
741 1 9.74651 0.510295 2.12365
645 1 9.09497 1.37398 1.74889
661 1 11.2296 1.22146 1.84352
889 1 10.6861 0.264101 1.55697
655 1 10.625 0.595053 2.59204
987 1 11.5627 0.356806 2.31974
976 1 12.5403 0.763322 2.00593
967 1 13.9598 0.247218 2.31956
1288 1 14.9345 0.5788 1.92107
1287 1 15.7351 1.1157 1.69485
1555 1 16.5995 0.979613 2.32306
1565 1 16.9095 0.0372189 2.42815
1292 1 16.2858 0.184809 1.56467
1566 1 17.5123 0.33297 1.77033
1607 1 19.5012 0.925596 2.16397
1608 1 18.5772 1.19676 1.90442
1626 1 20.119 0.201607 1.65022
1611 1 21.1537 0.922463 2.03528
1622 1 20.3866 1.33507 1.45476
1882 1 20.3518 0.378226 2.76164
1858 1 22.2531 0.425215 1.83858
2172 1 23.2403 0.672362 2.01603
2171 1 23.9396 0.0579653 2.20041
2184 1 23.0404 0.0351176 2.84339
2161 1 24.5508 0.733382 1.80603
2019 1 25.6206 0.227609 1.82656
2020 1 25.3172 0.642289 2.60776
2261 1 26.7391 1.30296 1.82568
2262 1 25.8376 1.19987 1.64496
2271 1 26.9818 0.0946763 2.40039
2272 1 26.1069 0.00578153 2.82375
2333 1 26.4495 0.912318 2.76389
2349 1 27.7528 1.34077 1.5074
2350 1 27.8727 0.80727 2.32609
255 1 29.9035 0.960874 1.52553
288 1 29.1274 0.844677 2.32311
28 1 0.717588 2.27759 1.59888
2260 1 2.74564 1.93367 1.98938
37 1 1.76176 2.1494 2.29709
2259 1 3.58354 1.5885 1.77422
413 1 3.68093 2.52019 2.06969
345 1 5.00283 1.9164 1.80809
411 1 6.01027 1.45514 1.66718
333 1 5.82902 2.57737 2.00075
334 1 6.44261 2.53202 2.68659
652 1 6.93062 2.03835 1.56746
732 1 8.01064 2.50908 1.45081
816 1 7.66289 1.65409 2.32157
815 1 7.5589 2.59965 2.39591
659 1 8.58125 2.70551 2.38286
730 1 9.51525 2.42577 2.63524
779 1 11.3221 2.419 1.68097
729 1 10.1209 2.76779 1.94872
780 1 10.9219 2.05719 2.49991
663 1 10.0718 1.66018 2.01603
739 1 12.4728 2.34683 1.62054
908 1 12.1759 1.74911 2.56733
977 1 11.8135 2.72477 2.60306
648 1 13.7111 2.29062 1.52735
989 1 13.2781 1.77129 2.38104
990 1 14.1743 1.68065 2.75643
1067 1 12.8709 2.66054 2.78263
1050 1 13.8427 2.68953 2.44284
1290 1 14.5906 1.7843 1.5937
972 1 15.1944 1.62897 2.49826
971 1 15.3918 2.5082 2.57939
1299 1 16.2431 2.01048 2.34205
1455 1 16.9414 2.82396 1.92889
1300 1 16.9211 2.4542 2.8246
1556 1 17.3008 1.72161 2.07675
1395 1 18.0818 2.53174 1.77518
1306 1 19.0214 2.03697 2.43005
1632 1 20.0757 1.82315 2.42539
1706 1 21.0513 1.81753 2.84037
1615 1 21.0578 2.18941 1.85152
1303 1 20.2141 2.5058 1.67868
1374 1 22.0381 1.51264 2.46035
1937 1 21.911 2.54602 2.34397
1938 1 22.4181 2.29866 1.5826
1373 1 22.9686 1.63101 2.16871
1629 1 23.4684 2.68971 1.59086
2162 1 24.7661 1.59725 2.08677
1932 1 25.2709 2.48321 2.22109
2015 1 26.2268 2.28299 1.60217
2353 1 26.2023 2.69551 2.62842
2339 1 25.7223 1.73987 2.70988
2016 1 27.1617 2.5193 1.65541
2247 1 28.1531 2.25534 1.67335
2288 1 27.3352 1.83324 2.49099
15 1 29.3841 1.82485 1.96144
2342 1 28.7734 2.69768 2.38978
2341 1 29.0334 2.68766 1.43578
27 1 1.26458 3.02054 1.77535
2432 1 0.346303 4.12203 2.47035
105 1 2.84941 3.24395 2.57503
106 1 2.03378 3.7604 2.64857
97 1 2.97645 4.08098 1.79364
498 1 4.171 3.52458 2.35111
484 1 5.20619 2.86145 2.81131
402 1 5.06841 3.92903 1.806
332 1 5.93869 3.98861 2.85146
418 1 6.69889 3.06652 1.68748
746 1 7.9619 3.45496 2.55044
794 1 9.28042 4.225 1.48268
817 1 8.64201 4.22649 2.80364
660 1 9.29424 3.32744 2.09257
818 1 9.58916 4.25091 2.79504
723 1 10.265 3.76289 2.01794
744 1 10.8908 3.20365 2.57357
725 1 11.3248 3.9834 2.15775
1073 1 12.752 4.2517 2.31106
1049 1 13.997 3.62885 2.53958
1061 1 13.1484 3.21169 1.89971
1054 1 14.6928 3.15454 1.57124
1066 1 15.3353 3.76297 2.06027
1449 1 16.2564 3.55336 1.5012
1375 1 16.2844 3.35666 2.49327
1456 1 17.3345 3.58702 1.54803
1479 1 17.1495 4.16996 2.38489
1399 1 17.9895 3.3812 2.47115
1383 1 19.435 3.16106 1.88119
1459 1 19.4733 4.20347 1.81126
1386 1 19.3994 3.69558 2.83065
1460 1 20.3308 3.97027 1.52364
1304 1 20.5603 3.16225 2.3327
1874 1 22.8043 2.9543 2.74289
1779 1 21.4379 4.06005 2.03875
2034 1 22.8496 3.66407 1.87192
2033 1 22.27 3.84456 2.63007
2098 1 23.8046 3.89063 1.62581
2097 1 23.5822 3.99502 2.54389
1630 1 24.0717 2.94223 2.34681
2021 1 25.5479 3.37393 1.64312
2099 1 24.6989 4.07895 2.01378
2022 1 26.0024 3.94746 2.27196
2336 1 26.9573 3.7785 2.45862
2326 1 28.2827 3.47483 1.59406
2051 1 27.6727 2.96327 2.36274
2325 1 28.2211 3.77369 2.47859
2430 1 29.697 3.25702 2.10432
2429 1 29.1744 4.09648 2.10334
100 1 1.01454 4.86332 2.0894
99 1 0.113052 5.0553 1.86463
165 1 2.2466 4.78766 2.4951
166 1 2.3899 5.09652 1.56432
479 1 3.90828 4.71476 2.75052
507 1 4.12703 4.84461 1.75161
110 1 3.11004 5.41978 2.46289
508 1 4.67971 5.4351 2.25399
422 1 4.83027 4.40318 2.65644
635 1 5.72844 5.38206 2.06831
430 1 6.77553 5.19087 2.3445
636 1 6.02243 4.50836 1.94152
727 1 7.55284 5.34428 1.49929
429 1 7.42656 4.43208 2.22026
728 1 8.37703 4.81638 1.52534
807 1 9.85269 5.06984 1.83127
1136 1 9.13565 5.32158 2.65353
724 1 10.5835 4.45956 1.44588
1185 1 11.1888 5.52715 1.79282
808 1 10.5064 4.78393 2.46627
726 1 11.6572 4.69085 2.59616
1222 1 12.1575 5.13042 1.74404
1197 1 14.025 4.7874 2.65834
1198 1 14.246 4.63925 1.75521
1138 1 12.9105 5.64396 2.71171
1465 1 15.0679 5.27637 1.97055
1471 1 15.9532 5.61809 1.59313
1472 1 16.6357 5.29849 2.20852
1457 1 15.7871 4.85088 2.57642
1533 1 17.866 5.27138 1.52911
1534 1 17.5691 5.09564 2.32576
1470 1 18.5001 5.69335 2.63615
1469 1 19.1203 5.41572 1.9758
1728 1 18.6048 4.50501 2.16625
1711 1 21.1975 4.96777 1.85798
1393 1 20.342 4.72435 2.37239
2014 1 22.8032 4.65904 2.05994
1712 1 21.9892 5.39169 2.16842
2103 1 23.8653 4.99458 2.27503
2110 1 24.9876 5.07327 2.33363
2459 1 27.0628 5.25144 2.03398
2090 1 26.1105 5.709 1.55764
2109 1 25.9459 5.02483 2.48528
2327 1 28.1572 4.78877 2.00624
2402 1 28.8418 5.66518 1.87847
186 1 29.4131 4.84944 2.75852
170 1 0.446583 6.84106 1.47358
2425 1 1.28372 5.88089 2.19853
169 1 0.326898 6.26262 2.23364
2426 1 1.64397 6.53594 1.58181
168 1 2.60714 7.1259 1.6313
263 1 2.1878 6.31648 2.63398
182 1 3.71578 6.8594 1.48345
109 1 2.99161 6.24867 1.96109
181 1 3.98088 5.96206 1.42941
492 1 4.17378 6.50762 2.38708
493 1 5.24641 6.25839 1.73349
494 1 5.17461 6.33738 2.70673
491 1 4.73891 7.12248 1.86754
495 1 6.19721 6.97515 2.63476
496 1 6.43717 6.05525 2.59827
813 1 6.89829 6.3666 1.44735
874 1 8.39054 5.79926 2.14503
814 1 7.48333 6.27319 2.20146
873 1 8.23282 6.68705 1.70406
805 1 9.24085 6.24018 1.97349
862 1 10.3237 6.39933 1.81759
1278 1 11.3185 6.39729 2.14444
861 1 10.2617 6.85383 2.69897
1128 1 12.4379 6.67 2.09479
823 1 11.908 5.91785 2.80719
1144 1 13.2868 5.71637 1.76899
1127 1 13.3941 6.63581 2.33062
1466 1 15.1652 6.2372 1.98734
1215 1 14.391 6.96314 2.62316
1147 1 14.3143 5.82038 2.5954
1141 1 16.0543 6.634 2.12793
1482 1 17.1252 6.18944 2.39312
1772 1 17.4777 7.12908 2.12794
1771 1 18.0694 6.40388 1.8816
1484 1 19.0772 6.54137 1.83565
1770 1 19.7224 6.1308 2.54199
1483 1 18.9217 6.75472 2.76041
1769 1 20.5284 6.65829 2.58744
1778 1 20.3774 5.72443 1.76053
2032 1 22.7151 6.52741 2.44007
1784 1 22.1928 6.67988 1.49354
1783 1 21.6075 6.6957 2.27517
1768 1 23.1426 5.78944 1.74697
2166 1 23.5055 7.11531 2.57695
2165 1 23.9255 7.12452 1.70688
2089 1 25.4939 5.99094 2.26536
2095 1 24.3413 6.14958 2.27711
2420 1 26.2755 6.79771 2.01422
2419 1 27.1251 6.32647 1.82359
188 1 28.3696 6.79513 2.0898
2500 1 27.5612 6.85597 2.78665
2357 1 27.7765 5.84888 2.47712
187 1 29.2245 6.9144 1.66164
208 1 29.3967 5.94375 2.77057
251 1 1.24076 7.43993 2.3262
253 1 0.378139 7.91904 2.78569
259 1 0.570161 8.38162 1.85186
252 1 1.95289 7.86296 1.83792
264 1 2.36488 7.2151 2.64764
167 1 2.95115 7.90955 2.04849
576 1 3.92597 7.63919 2.51216
637 1 5.28549 8.37906 1.55244
489 1 5.69579 7.43778 1.64513
570 1 4.95615 7.66556 2.7745
579 1 6.51172 8.48369 1.48746
580 1 6.91231 7.76988 1.96818
490 1 5.85718 8.02979 2.40018
555 1 8.27314 7.77289 1.7933
820 1 7.62915 7.41368 2.63052
501 1 8.1862 8.20312 2.84542
556 1 8.83201 7.24844 2.44809
880 1 9.73747 7.42849 2.08314
879 1 10.4288 7.9394 2.46058
1124 1 11.2164 7.50741 1.84673
887 1 11.0765 8.50765 2.05441
1202 1 12.185 7.80566 1.67035
1270 1 11.6933 8.00918 2.73772
1151 1 12.7982 8.49689 2.8424
1201 1 13.1228 7.6529 1.85002
1132 1 14.0873 7.41846 1.6066
1126 1 13.9283 8.52296 1.96761
1231 1 14.9842 8.11867 2.28485
1522 1 16.7073 7.25532 1.45197
1360 1 15.9577 7.77347 2.10476
1453 1 16.923 7.91492 2.68
1526 1 17.3924 7.94568 1.49936
1551 1 18.0066 8.39738 2.63522
1532 1 19.8359 7.51811 2.07604
1552 1 18.6044 7.62826 2.33352
1531 1 20.1171 8.39118 2.36172
1854 1 20.9117 7.50701 2.05317
2173 1 21.9888 7.97659 2.10922
2174 1 22.8525 8.12144 2.37399
2170 1 24.1051 8.06693 1.95522
2101 1 25.0497 7.21269 2.81966
2501 1 25.1491 7.2044 1.79242
2502 1 25.0839 8.18134 1.93722
2258 1 26.8993 8.33211 1.88717
2257 1 26.0827 8.00574 2.26868
2510 1 27.7125 7.66906 2.10595
2434 1 27.1453 8.07831 2.84633
254 1 29.9074 7.53968 2.04297
2509 1 28.672 7.86672 2.15584
2356 1 29.0573 7.159 2.79276
22 1 0.889125 9.72847 2.77431
20 1 1.21892 9.37155 1.88158
23 1 2.19759 8.84178 2.02883
265 1 2.59591 9.67443 2.14285
17 1 3.47607 8.83561 2.1617
18 1 3.86009 9.55748 2.61581
572 1 4.61214 8.78957 2.31441
336 1 6.00056 9.36718 2.03357
335 1 6.89853 9.74227 1.8886
326 1 6.74398 8.59875 2.51583
325 1 7.58239 8.68803 2.04683
567 1 8.03049 9.59367 1.96264
884 1 8.98173 9.92013 1.60896
901 1 9.51867 8.70979 1.43334
896 1 9.02418 9.34042 2.54017
888 1 11.308 9.44369 1.73737
885 1 10.2244 9.36276 2.21421
1540 1 11.9799 9.42957 2.46984
1539 1 12.3335 8.86648 1.75207
975 1 12.9954 9.94829 1.86467
1125 1 13.5584 9.2823 2.38484
1318 1 15.0582 9.99504 2.70882
1538 1 14.6154 9.3782 1.89631
1537 1 14.4701 8.97607 2.76528
1359 1 15.7829 8.62181 1.67413
1865 1 17.0765 8.92393 2.29179
1569 1 15.9146 9.40228 2.35867
1866 1 17.8563 9.05658 1.732
1870 1 18.4344 9.85621 2.31479
1869 1 19.4123 9.70788 2.41756
1848 1 19.0217 8.82361 2.006
2179 1 21.1588 8.73298 1.86504
1625 1 20.2011 9.27395 1.91609
1919 1 20.6923 9.23347 2.83298
1920 1 21.2285 9.78858 2.29331
2180 1 21.5184 8.75338 2.73634
2167 1 22.7612 8.66472 1.46355
2168 1 22.2828 9.22441 2.09101
1862 1 22.0909 9.94726 2.83793
2188 1 23.6291 9.16804 1.72444
2178 1 24.0204 8.90311 2.74447
2187 1 24.5596 9.1959 1.57283
1925 1 25.0101 9.44621 2.55262
2263 1 26.5295 9.68558 1.47876
2264 1 25.827 9.25174 2.01905
2506 1 27.0387 9.0279 2.56608
2507 1 27.958 8.71414 2.06484
2508 1 27.465 9.45102 1.65312
289 1 28.2338 9.84596 2.22876
21 1 29.9227 9.85027 2.69796
287 1 29.2403 9.98164 1.86735
260 1 29.97 9.09747 1.91434
2251 1 29.0019 9.02067 2.35863
2252 1 28.9021 8.8266 1.46461
303 1 0.982075 0.267716 3.89476
121 1 1.39836 1.31747 3.90132
304 1 0.637936 0.827289 3.14827
31 1 2.17444 0.253705 3.03805
32 1 2.37037 1.1942 3.05785
342 1 2.53095 0.494387 4.1227
93 1 4.22049 1.19906 3.72889
341 1 3.18369 0.576819 3.42698
29 1 4.56607 0.471837 2.9748
354 1 5.45647 0.951741 3.55825
262 1 4.58357 0.00552742 3.98198
338 1 6.72042 1.34562 3.01311
370 1 6.44763 0.553412 3.50865
369 1 7.08764 1.016 4.06129
339 1 8.57065 1.3073 3.12931
899 1 8.24794 0.0582056 3.13305
616 1 7.88144 0.158308 4.10208
340 1 8.36708 1.28609 4.10378
710 1 9.29625 0.680875 3.7547
742 1 9.81094 0.0220234 2.9461
709 1 9.69575 1.14982 2.9777
656 1 10.4432 0.663857 3.50723
988 1 12.2119 0.459851 2.9655
907 1 11.4349 1.28002 2.93305
904 1 11.4872 0.431324 3.62771
994 1 12.4449 1.33266 3.55019
1205 1 12.5138 0.336653 4.15758
993 1 11.5778 1.34975 4.10603
1536 1 13.3716 0.966904 4.07251
1535 1 13.4347 0.880112 3.14662
968 1 14.4944 0.705743 2.98996
1249 1 15.3573 0.979217 3.5459
1317 1 15.9798 0.261372 2.90557
1000 1 15.8911 0.117684 3.999
1007 1 16.6247 0.967756 3.75746
1313 1 17.6279 0.588973 3.06574
1314 1 18.5465 0.763226 2.87396
1391 1 17.9145 1.09222 4.03455
1562 1 17.4784 0.0406788 4.13092
1310 1 19.902 1.1414 3.45453
1309 1 19.307 0.371735 3.4915
1640 1 19.0915 1.10964 4.21261
1633 1 20.5636 0.238201 3.78036
1718 1 20.8691 1.23693 3.84488
1881 1 21.227 0.68935 3.04392
1877 1 22.6087 0.887485 3.24878
1878 1 21.9145 0.878976 3.94986
2183 1 23.7154 0.508491 3.3245
1956 1 23.859 0.870709 4.27252
2176 1 24.4966 1.25196 3.14684
1960 1 25.4296 0.348306 3.67243
1959 1 24.7329 0.082302 4.20202
2334 1 26.0956 1.07347 3.6724
2273 1 26.6513 0.178336 3.99215
2498 1 27.5677 0.54066 3.32264
2497 1 28.5421 0.78535 3.36822
2267 1 29.667 0.644382 3.41086
2344 1 0.812608 1.97285 3.09244
2343 1 0.802963 2.44141 3.92188
41 1 0.0770663 1.4644 3.91592
445 1 2.46745 1.56167 4.14906
38 1 1.81348 2.33776 3.2481
446 1 2.56844 2.51535 4.25996
102 1 2.85853 2.26163 3.28512
101 1 3.46069 1.61242 3.0875
435 1 3.80589 2.14504 4.05156
414 1 3.91445 2.74345 3.0102
94 1 4.58724 1.51713 2.86877
353 1 5.68254 1.83871 3.2925
409 1 4.79207 2.27673 3.63804
350 1 5.66798 2.57176 4.24806
427 1 6.69732 2.11394 3.99063
344 1 7.64589 1.75163 3.44892
666 1 8.59032 2.28255 3.83686
644 1 9.42084 2.82438 3.91779
351 1 9.70089 1.65748 3.9103
743 1 10.3348 2.80707 3.21036
352 1 10.5859 1.84289 3.56893
978 1 11.5701 2.37816 3.502
1002 1 14.054 2.02039 4.08181
1001 1 13.2497 2.04449 3.56273
985 1 15.0137 2.09739 3.43995
1250 1 14.8678 1.46682 4.27677
986 1 15.9773 2.01975 3.35648
1407 1 17.0613 2.64102 3.93708
1008 1 16.0184 1.58304 4.19183
997 1 15.8681 2.79985 4.27377
979 1 17.3022 1.5653 3.17985
1408 1 17.1717 1.79258 4.25905
980 1 18.0747 2.11452 2.93001
1389 1 18.1682 2.35453 4.01468
1305 1 19.0202 1.97337 3.40695
1631 1 20.0646 2.26931 3.33513
1709 1 21.1243 2.71904 3.77061
1671 1 22.8008 2.22849 3.78829
1705 1 21.745 1.90777 3.5731
1672 1 23.3167 1.70623 3.13759
1620 1 23.7867 2.29969 3.9778
2175 1 24.3046 2.21515 3.03967
1619 1 24.7194 1.98599 3.92094
2340 1 25.5282 2.38062 3.44628
2361 1 26.8551 1.71977 3.65588
2287 1 27.8951 1.68817 3.26581
2052 1 27.2625 2.5408 3.14952
2278 1 28.8877 1.74041 4.00143
2268 1 29.8633 1.56689 2.95058
2277 1 28.8877 1.95101 3.0522
2519 1 29.7481 2.55216 2.90742
2520 1 29.6645 2.50416 3.89699
195 1 0.609521 3.08354 2.99592
2359 1 0.144249 3.6598 4.11311
196 1 0.936549 3.91698 3.42933
25 1 1.58085 3.13187 4.22325
26 1 2.04726 3.71506 3.59038
480 1 3.0263 4.23907 2.94106
497 1 4.03378 3.70744 3.29499
436 1 3.90134 3.11247 4.21511
434 1 3.3724 4.09416 4.06708
433 1 3.00177 3.32219 3.70408
410 1 4.90733 3.18389 3.85235
408 1 5.2887 4.21729 3.67209
407 1 4.48605 4.16241 4.23561
483 1 5.89859 3.10573 3.41717
425 1 6.8301 3.51588 2.92365
347 1 6.57342 4.16656 4.21337
426 1 6.82009 3.15488 3.81891
424 1 7.53087 4.15751 3.22809
745 1 7.9283 3.08949 3.4601
755 1 8.38953 4.15198 3.8173
756 1 7.72132 3.71127 4.26807
643 1 8.91007 3.31918 3.20176
747 1 9.93826 3.80888 3.70418
736 1 11.3891 3.49682 3.63202
1068 1 12.5829 2.91578 3.61036
1074 1 12.1337 3.83667 2.94627
1122 1 13.8863 4.16188 3.60326
1121 1 13.1718 3.76393 3.14961
984 1 13.7674 2.9789 3.74171
1076 1 13.0994 3.78951 4.2052
1077 1 15.2833 3.37636 3.02839
1078 1 14.7141 3.08836 3.75623
1382 1 15.4748 3.85128 4.00584
1376 1 16.2539 3.0622 3.38669
1085 1 16.4451 4.11602 3.72158
1086 1 17.1906 3.61733 3.38748
1419 1 18.2702 4.15423 4.25318
1400 1 18.6253 2.9678 2.94828
1390 1 18.8753 3.10214 4.05272
1385 1 19.5026 4.10481 3.7385
1312 1 20.0735 3.21411 3.85282
1710 1 21.2914 3.32445 3.05595
1798 1 21.0881 4.11737 3.78375
1394 1 20.3649 4.03557 3.05435
1873 1 22.1202 2.89108 3.40875
1797 1 22.0374 3.88569 3.77451
1943 1 23.7608 3.13913 3.32392
1944 1 23.0422 3.78684 3.39956
1628 1 24.251 3.72456 3.98736
1931 1 25.0303 3.1092 2.93025
2100 1 24.7165 4.1756 3.02079
2039 1 25.3647 3.86091 4.12023
2354 1 26.1078 3.20516 3.47184
2124 1 26.562 3.81513 4.23154
2364 1 27.5523 3.41281 3.77695
2363 1 28.2691 3.11874 3.19162
2431 1 29.5577 3.83713 3.02453
199 1 28.703 3.34422 4.0109
185 1 0.288111 5.2921 2.88239
2370 1 0.140908 4.63417 3.81497
103 1 1.4138 4.7646 3.09331
104 1 1.48983 5.70386 3.29721
180 1 2.84313 5.18498 3.39642
111 1 2.31242 4.49933 4.16827
112 1 1.79154 5.28571 4.21917
179 1 3.5824 4.98421 4.00556
421 1 5.37371 5.04855 2.98398
420 1 4.59853 5.63948 3.32448
331 1 6.36658 4.75173 3.23413
442 1 5.9071 5.02074 4.23203
825 1 7.71301 5.35906 2.87517
423 1 7.53266 4.8734 3.90383
826 1 8.27892 5.53156 3.69033
1157 1 9.99894 5.1567 3.30995
1158 1 9.22797 4.65547 3.62565
735 1 10.9396 4.36615 3.43922
758 1 10.699 5.49567 3.99134
1055 1 12.1508 4.37606 3.84826
912 1 12.3642 5.48319 4.10411
911 1 11.6893 5.23774 3.55976
1056 1 12.8755 4.70544 3.28542
1060 1 14.2431 5.12548 3.6747
1458 1 14.9353 4.42546 2.94205
1225 1 15.1709 5.59121 3.23353
1071 1 15.1868 5.04925 4.2463
1480 1 17.4885 4.6427 3.18154
1727 1 18.7319 4.54607 3.10607
1473 1 19.907 5.06581 3.25192
1716 1 19.0122 4.95044 4.14904
1782 1 21.18 4.90029 2.90096
1789 1 20.7941 5.28798 4.04551
2028 1 22.7491 4.99715 3.12059
1713 1 21.9781 4.94139 3.80605
2030 1 22.7842 5.69804 3.90925
2027 1 23.61 4.62825 3.33884
2040 1 25.5804 4.56023 3.46203
2348 1 24.3887 5.51076 3.1515
2036 1 26.5455 4.36822 3.24033
2112 1 26.3068 5.43365 3.85023
2335 1 27.5535 4.45463 2.8793
2035 1 27.1606 4.8834 3.73102
2037 1 28.2638 5.26752 4.08492
108 1 28.3911 5.27287 3.02295
107 1 28.6366 4.4213 3.41537
194 1 29.304 5.34898 4.08126
204 1 0.0624804 6.00611 3.59908
190 1 0.334132 7.13513 3.65842
189 1 0.845217 6.56289 3.11388
202 1 1.10969 6.48689 4.27423
184 1 2.25837 6.65379 3.62564
419 1 3.69238 5.85922 3.53588
281 1 3.19953 6.67289 3.02726
500 1 4.51261 7.11388 3.61343
512 1 5.06081 6.26838 4.00734
594 1 6.9068 5.76409 3.5093
593 1 5.92816 5.89505 3.43015
587 1 6.51482 6.80062 4.22679
819 1 7.27189 6.76137 3.28007
811 1 8.38146 6.45574 2.98173
504 1 7.7489 6.38444 4.09539
1135 1 9.62291 6.05806 3.0083
812 1 8.80129 6.33871 3.78145
897 1 9.84817 6.17946 3.96639
824 1 10.9704 5.71695 2.88571
898 1 10.6497 6.4776 3.53
1277 1 11.4904 6.94588 2.98492
1170 1 12.0342 6.46352 3.72159
1137 1 13.2528 5.7452 3.57224
1148 1 14.1165 6.28722 3.40396
1233 1 13.2917 6.97706 4.023
1160 1 14.924 6.76089 4.12393
1142 1 15.554 6.93984 2.88355
1226 1 16.0573 5.91362 3.22085
1481 1 16.8818 6.69861 3.19389
1558 1 16.1881 6.73347 3.96534
1464 1 17.5449 5.7356 3.52813
1489 1 17.7197 6.62774 4.09541
1715 1 18.5408 5.90942 4.16035
1474 1 19.4325 5.8428 3.54125
1795 1 18.7916 6.91586 3.82834
1774 1 21.3226 6.73925 3.28836
1781 1 20.6331 5.72948 2.99744
2121 1 20.4998 6.44904 3.93098
1773 1 21.5017 5.7964 3.55337
2029 1 22.3648 6.51589 3.48362
2031 1 23.3256 6.01207 2.9942
1791 1 23.41 6.85892 3.69101
2118 1 23.9698 5.78766 4.0708
2347 1 25.3292 5.79792 3.41954
2102 1 24.4369 6.65121 3.32622
2358 1 26.8602 5.82038 2.89735
2337 1 26.5082 6.65769 3.2405
2414 1 27.111 6.01156 4.18463
2428 1 26.7682 7.02453 4.22275
2499 1 28.2678 6.99789 3.50115
2413 1 27.803 6.13855 3.66353
207 1 28.8228 6.06044 3.57771
2438 1 29.2772 6.96771 3.82718
294 1 1.39355 7.52891 3.65561
58 1 1.3932 8.40969 2.8663
279 1 2.40745 7.44312 4.20528
280 1 2.53537 8.23031 3.71662
53 1 1.5805 8.30697 4.26103
575 1 3.79679 8.43476 3.11048
282 1 3.13076 7.57714 3.13641
569 1 5.49541 7.95595 3.57501
506 1 6.70574 7.69778 3.07577
588 1 6.48271 7.78821 4.16901
565 1 7.57689 7.84718 3.63738
566 1 8.45446 7.42784 3.49321
502 1 9.18483 8.38536 2.8948
803 1 9.53219 7.65957 3.67744
919 1 8.61461 8.26787 4.15978
1214 1 10.8289 7.70808 3.33514
804 1 10.2536 7.23371 4.13432
686 1 10.5498 8.48887 4.06665
1269 1 12.4965 7.4399 2.99808
1139 1 11.6873 7.42061 3.87319
1140 1 12.2813 8.16676 3.69407
1216 1 13.9128 7.76926 2.90029
1468 1 13.6646 7.89591 4.10276
1553 1 14.9823 7.73033 3.47363
1554 1 15.9177 7.75532 3.37384
1557 1 16.7276 7.50199 4.11819
1454 1 16.836 8.5007 3.4627
1490 1 17.9053 7.15341 3.36231
1807 1 18.2791 8.5695 3.68413
1808 1 17.9261 7.89088 4.19607
1547 1 19.1688 7.99257 3.17475
1548 1 19.8128 7.27544 3.15425
1893 1 19.6414 7.64067 4.23315
1868 1 19.9002 8.43646 3.64301
1853 1 20.8852 7.78328 2.92513
2122 1 20.7272 7.4255 4.14843
1859 1 21.0867 8.52896 3.69908
2107 1 21.6896 7.61486 3.76099
1792 1 22.8412 7.55184 3.35167
2169 1 24.1988 7.80961 2.91056
2275 1 24.0699 8.05828 3.95343
2276 1 24.9176 7.62301 3.90435
2199 1 25.2295 8.3185 3.16661
2338 1 26.3942 7.61227 3.36746
2191 1 25.8065 8.20134 4.08462
2518 1 27.0408 8.44293 4.12673
210 1 28.4759 7.90389 3.99003
2433 1 28.0568 8.34158 3.0622
2427 1 27.4593 7.54368 3.83681
2355 1 29.447 7.99594 3.1525
212 1 29.2919 8.4666 4.25
274 1 0.12645 9.70277 3.86857
54 1 1.32644 9.20997 3.93297
273 1 0.350946 8.75162 4.06703
57 1 1.83149 9.33829 2.92122
276 1 2.3847 9.29066 3.98944
24 1 2.73028 8.78809 2.87422
275 1 3.17779 9.56406 3.63972
277 1 3.98769 9.03355 4.22237
30 1 5.31297 9.9248 2.98255
571 1 5.44565 8.79372 2.86754
278 1 4.67076 8.94018 3.52392
596 1 6.0269 9.52249 3.84054
577 1 7.10744 9.83941 2.96348
505 1 6.4294 8.57201 3.46378
590 1 7.43764 8.92548 3.33071
589 1 8.09947 9.16821 3.90403
905 1 9.57055 8.7435 4.01021
584 1 9.84425 9.87676 4.21063
895 1 9.0408 9.5286 3.52632
1213 1 11.0631 8.6608 3.24007
906 1 10.1297 9.07079 3.33447
886 1 10.8881 9.61903 2.89844
1229 1 10.7663 9.47025 4.00875
903 1 11.9071 9.61562 3.51001
1235 1 12.8498 8.90835 4.24029
1219 1 12.9735 9.55566 3.41139
1152 1 13.5687 8.57843 3.46474
1220 1 13.9229 9.78453 3.35755
1228 1 15.4134 8.67176 3.55301
1227 1 14.9718 9.5488 3.6467
1570 1 16.2105 9.38396 3.28467
1574 1 18.4071 9.90793 3.44897
1573 1 17.6477 9.45162 3.10575
1497 1 17.478 8.91028 4.2759
1549 1 18.9156 9.04739 2.98077
1550 1 19.093 9.14939 3.93305
1867 1 19.9181 9.38875 3.41441
1871 1 21.3158 9.54128 3.67488
1860 1 22.0143 8.66537 3.71006
1861 1 22.5296 9.71148 3.69139
2177 1 23.0972 8.94458 3.07407
2190 1 23.2453 8.72409 4.19294
1926 1 24.4134 9.65738 3.28263
2192 1 25.4873 9.11178 4.20831
2200 1 26.1297 8.66478 3.11332
2505 1 26.8837 9.40248 3.47002
290 1 27.9622 9.51867 3.06094
2280 1 27.7286 9.45367 4.05027
291 1 29.65 8.93096 3.25558
2457 1 28.5851 8.97215 3.83815
292 1 29.0667 9.74774 3.31396
42 1 0.446027 0.768076 4.48684
39 1 1.88533 1.06243 4.94221
49 1 2.64444 0.0799191 5.61615
360 1 3.62437 0.368711 4.37296
448 1 3.8305 1.37593 4.6758
447 1 3.07297 0.974514 5.08474
358 1 4.99407 0.778829 4.73097
595 1 5.81119 0.329835 4.32325
781 1 5.96242 1.18128 4.87291
782 1 6.67159 0.552996 4.90885
615 1 7.88105 0.387876 5.04952
683 1 7.44816 1.30438 5.14043
682 1 8.74341 0.840964 4.98672
654 1 9.79719 0.833779 4.65995
653 1 9.61113 0.0741827 5.33119
1230 1 10.7309 0.208905 4.65343
910 1 10.2796 0.807831 5.51596
909 1 11.1818 0.57693 5.6909
1206 1 11.7619 0.399763 4.69163
1208 1 12.6259 0.356991 5.69267
1240 1 12.7016 1.13173 4.96514
1207 1 13.3419 0.126312 5.02183
1248 1 14.1889 0.282788 5.71364
677 1 14.0544 1.17972 5.11011
1246 1 14.3215 0.118438 4.38055
999 1 15.3711 0.632836 4.50713
1401 1 15.7659 0.688123 5.66132
1328 1 16.4747 1.37478 5.06426
1402 1 16.5694 0.23636 5.40228
1327 1 17.2954 0.857515 4.79389
1639 1 18.5235 0.417452 4.63404
1896 1 18.7298 0.704472 5.60843
1659 1 20.2258 1.11471 4.66493
1634 1 21.1335 0.434577 4.59672
1658 1 20.6935 0.0907667 5.66516
1856 1 22.7624 0.250496 5.44885
1855 1 22.8513 0.257632 4.47506
1635 1 22.3888 1.16433 4.92889
2193 1 23.4403 1.08705 5.39682
2194 1 24.1512 0.424183 5.22911
2256 1 25.223 1.07132 4.40714
1983 1 25.1934 0.492391 5.42735
2513 1 26.5768 0.97389 4.65954
2274 1 25.9914 0.136818 4.68686
2514 1 26.5015 0.847962 5.57961
2279 1 27.8836 0.376134 4.34415
2295 1 28.1835 1.23402 4.79182
1976 1 27.395 0.501704 5.34314
2293 1 29.7567 0.327845 5.16571
2528 1 29.1066 0.79347 4.36663
2304 1 28.9358 0.524462 5.65434
2385 1 29.5653 1.42014 5.14737
2352 1 0.839531 1.46209 5.06593
2447 1 1.22561 2.40028 5.58594
2351 1 0.194714 2.0474 4.77951
122 1 1.56707 1.98436 4.56889
45 1 2.51713 1.9226 5.23473
46 1 2.0968 2.81229 5.25557
128 1 3.28275 2.6901 5.09361
61 1 3.67978 1.69135 5.60124
357 1 4.80782 1.67345 4.46907
437 1 5.08695 1.75955 5.39252
428 1 6.70096 1.86009 4.89064
349 1 5.8679 2.67048 5.1644
343 1 7.7549 2.02888 4.42182
665 1 8.54085 2.83811 4.67681
361 1 7.73341 2.59729 5.29382
362 1 8.37501 1.86122 5.21167
754 1 9.41492 1.76754 5.32625
753 1 9.48189 2.71212 5.24135
982 1 10.3963 1.95829 4.59914
981 1 10.4631 2.82954 4.29213
995 1 11.1827 1.56646 5.00338
996 1 10.4432 1.83485 5.60127
672 1 10.6391 2.78726 5.33107
737 1 11.4854 2.61046 4.71224
738 1 12.2426 2.16661 4.36152
1237 1 12.3477 2.04925 5.36068
1239 1 13.1909 1.89577 4.62957
998 1 15.118 2.39874 4.56297
1090 1 15.6497 2.00127 5.33583
1162 1 14.3649 2.2956 5.40605
1403 1 16.4783 2.43951 4.96
1392 1 18.2853 1.52066 4.84173
1319 1 17.313 1.86017 5.34502
1741 1 18.1848 2.58041 5.09904
1641 1 19.1509 2.25934 4.7016
1642 1 19.478 1.80951 5.51691
1660 1 20.4387 2.03874 4.33242
1717 1 21.2947 1.47549 4.71601
1719 1 20.5948 1.77857 5.48212
1733 1 21.0274 2.73933 4.95807
1734 1 21.8892 2.32564 4.55553
1654 1 22.4692 2.73796 5.5455
1648 1 21.5674 1.79887 5.65838
1623 1 23.1492 2.05717 4.8591
1948 1 25.4644 2.44156 4.59995
1955 1 24.4064 1.49091 4.84914
1947 1 25.4849 2.46942 5.54779
1945 1 24.4209 2.41565 5.21893
2255 1 25.6442 1.55552 5.16164
2362 1 26.1397 1.81378 4.29972
1973 1 26.5643 2.33165 5.64377
2123 1 26.7134 2.8353 4.31811
2282 1 27.7314 2.3282 4.35418
2296 1 27.3775 1.63894 5.16014
2386 1 28.8937 2.05408 5.09588
2442 1 29.9517 2.75622 5.4885
2448 1 0.766402 2.86167 4.85754
2360 1 0.307977 3.79181 5.11289
127 1 2.80194 3.51645 4.88339
126 1 1.77446 3.86997 4.94006
130 1 3.79524 3.66599 5.30015
129 1 4.38604 2.93306 5.3193
431 1 5.46878 3.54746 5.55798
760 1 6.83148 3.17459 5.00068
432 1 5.75138 3.65819 4.59583
667 1 8.19475 3.3691 5.65938
829 1 7.51049 4.15082 5.317
761 1 8.85692 3.86924 4.85132
748 1 9.87502 3.61613 4.60336
671 1 11.0545 3.55358 4.84178
778 1 10.3005 3.88992 5.5565
1075 1 12.2346 3.3784 4.53203
1167 1 12.7396 4.13147 5.16268
1014 1 12.0496 3.02542 5.43287
983 1 14.1209 2.97253 4.71675
1081 1 13.1234 3.00606 4.87948
1079 1 13.7319 4.24097 5.09343
1080 1 14.4152 4.11915 4.46443
1134 1 15.1681 3.46311 4.87976
1381 1 16.2928 3.68579 4.59593
1404 1 16.0559 3.08045 5.62146
1420 1 17.3065 4.07959 4.37333
1742 1 18.229 3.53304 5.29088
1411 1 17.374 3.19343 4.85598
1311 1 19.8655 3.20423 4.7955
1731 1 19.0306 4.12543 4.90365
1752 1 19.2041 2.89236 5.66148
1732 1 19.9674 4.20918 5.28738
1650 1 21.0069 3.78962 5.00083
1649 1 20.5864 3.34036 5.70629
1729 1 22.3006 3.32148 4.53494
1730 1 22.032 3.69174 5.34253
1624 1 23.4769 2.87245 5.18783
1627 1 23.4543 3.25665 4.32362
2046 1 24.1472 4.05015 5.48492
2041 1 22.9685 4.12845 5.3455
1946 1 24.7028 3.29059 4.93234
2049 1 26.6371 3.41153 5.58054
1966 1 25.7779 4.09736 5.50171
1965 1 25.845 3.31678 4.91745
2050 1 27.055 4.18258 5.25459
2281 1 27.4061 2.93739 5.0752
2365 1 27.644 4.25746 4.39583
2366 1 28.1774 3.63973 4.87725
2285 1 28.5347 2.97682 5.57048
200 1 29.1359 4.15751 4.33506
2441 1 29.3633 2.94294 4.75473
203 1 0.493645 5.64763 4.30011
2369 1 0.961047 4.55586 4.32134
124 1 0.667687 4.77825 5.20539
123 1 1.1864 5.63455 5.04801
592 1 2.39672 5.33483 5.04398
191 1 2.95332 4.5462 5.14911
116 1 3.92585 4.72827 5.16988
591 1 3.24112 5.70201 5.07441
441 1 4.9399 5.18896 4.36981
115 1 4.87242 4.53838 5.28115
522 1 4.95269 5.63828 5.48706
348 1 6.79412 4.81745 4.88458
827 1 7.6815 5.22898 5.67333
830 1 8.17364 4.60111 4.83011
503 1 7.50714 5.62976 4.66234
751 1 8.94849 5.04629 4.45579
752 1 9.85481 4.716 4.39575
749 1 8.77268 5.30538 5.68289
750 1 9.41703 4.60404 5.36002
846 1 10.247 5.56779 4.91222
757 1 11.0244 4.63117 4.39646
1094 1 11.2314 4.79599 5.56435
1168 1 12.1003 4.76788 4.77504
1059 1 14.2054 5.61177 4.5004
1189 1 13.1815 5.11974 4.81597
1097 1 14.9447 4.83549 5.37574
1098 1 15.7266 4.49034 5.01369
1475 1 16.7754 5.00197 4.87871
1496 1 15.9393 5.55686 5.25304
1463 1 17.6221 5.1418 4.3448
1397 1 17.5712 4.5183 5.34497
1398 1 18.3378 5.02641 5.07249
1725 1 19.3893 4.97078 5.58359
1799 1 19.8409 5.57813 4.67275
1701 1 20.2857 4.5831 4.40729
1702 1 20.6697 4.97094 5.1798
1723 1 21.4191 5.67541 5.60997
1714 1 21.5372 4.59004 4.65555
2042 1 22.5472 4.3979 4.48951
1739 1 22.5138 5.69588 5.59342
1962 1 23.5995 4.49633 4.39405
1961 1 23.1571 5.21881 4.70802
2025 1 24.8298 4.89174 5.35991
2026 1 24.7108 5.05663 4.44222
2128 1 25.6087 5.53536 5.15172
2367 1 26.0737 4.73264 4.68183
2368 1 26.9577 5.10859 4.73886
2465 1 28.1475 4.70293 5.26267
2436 1 27.7399 5.61496 5.70189
117 1 29.6946 4.78461 5.13563
193 1 28.7829 5.34696 4.88725
138 1 0.422444 6.60393 5.04596
137 1 1.1459 6.37902 5.6276
284 1 2.08125 6.26542 4.85985
283 1 2.80644 6.73918 5.26084
201 1 1.57372 7.06724 4.8684
499 1 3.97318 6.87736 4.43891
183 1 2.93664 6.52416 4.30001
219 1 4.07 6.30334 5.40448
511 1 5.53113 7.03978 4.34089
509 1 4.94324 6.72702 5.30995
514 1 6.17968 5.75784 4.88625
513 1 6.93155 6.30865 5.33561
1064 1 8.329 6.09294 5.05555
1063 1 7.85081 6.8301 5.40366
917 1 8.34573 7.1298 4.52751
845 1 9.32761 5.94717 4.89308
831 1 9.86676 6.8763 5.12421
835 1 10.8105 6.42691 4.71807
1156 1 11.2638 6.53187 5.63051
836 1 11.4642 5.7258 4.71324
1169 1 12.0575 6.61676 4.70029
1153 1 12.6297 5.81031 5.43156
1190 1 13.1667 6.07073 4.70888
1252 1 13.1615 7.04866 5.14059
1255 1 13.9928 6.70583 5.6359
1072 1 15.6163 5.91553 4.36552
1177 1 14.8007 6.30886 5.06225
1476 1 16.7855 5.84287 4.36493
1499 1 16.0861 6.54839 5.18174
1495 1 16.8713 5.75947 5.55124
1485 1 17.2059 6.66245 4.98893
1421 1 18.4705 6.85315 5.01899
1486 1 17.7257 5.86442 5.05139
1478 1 18.8924 5.83912 5.29111
1796 1 19.4023 6.55049 4.49661
1790 1 20.7812 5.93063 4.83204
1800 1 20.094 5.77138 5.54157
1801 1 20.1662 6.96434 5.08549
1787 1 21.5587 6.67014 4.30934
1883 1 21.6599 6.64701 5.56828
1788 1 21.7971 5.81706 4.63034
2114 1 22.4905 6.52038 4.93755
2117 1 23.592 6.27098 4.83439
2127 1 24.8347 6.10119 5.03565
2129 1 24.9496 6.72506 4.33439
2111 1 25.9701 6.21651 4.40485
2140 1 26.8647 6.7075 5.32631
2133 1 25.7844 6.86651 5.39434
2445 1 27.9588 6.81459 4.58278
2038 1 27.9457 5.83595 4.75116
2446 1 28.3863 6.38102 5.40469
118 1 29.8607 5.7184 5.04724
113 1 29.6513 6.9614 5.59858
2437 1 29.2032 6.49331 4.63342
293 1 0.768328 7.66199 4.4278
214 1 0.327803 8.27515 5.09141
2308 1 2.15522 7.84933 5.28025
515 1 3.81223 7.90117 4.48024
35 1 3.13222 7.76666 5.31028
269 1 4.17451 7.81621 5.46886
36 1 3.13421 8.55052 4.73251
516 1 4.70572 8.20427 4.33902
510 1 5.22669 7.64082 5.15333
582 1 6.42407 7.47046 5.1525
916 1 7.01313 8.36446 5.65357
603 1 7.21776 8.49573 4.44982
918 1 7.35734 7.35503 4.56969
920 1 8.16324 8.02895 4.99496
1173 1 9.58579 7.96676 4.89245
833 1 8.97785 7.34853 5.38135
921 1 10.848 7.38192 5.08276
1174 1 10.1104 8.22371 5.61077
685 1 11.0354 8.32744 4.8753
1234 1 12.6144 7.54985 4.34831
1242 1 12.1656 8.30063 5.13494
1159 1 14.2614 7.17167 4.65449
1467 1 13.2174 8.12909 4.93201
1541 1 14.1548 8.53092 5.10473
1542 1 14.7045 8.41407 4.30937
1145 1 15.6674 7.50523 4.51544
1576 1 14.3686 7.65625 5.59443
1146 1 15.2131 7.20297 5.31446
1564 1 15.571 8.46698 5.11966
1563 1 16.1153 8.51853 4.29717
1559 1 17.0822 7.66664 5.28775
1560 1 16.174 7.66613 5.65961
1498 1 17.6234 8.53086 5.1503
1805 1 18.3528 7.93186 5.57377
1894 1 19.2868 7.49064 5.06012
1903 1 18.9425 8.57076 4.92937
1492 1 20.1232 8.16146 5.70994
1491 1 20.3593 8.25368 4.75349
1863 1 21.1891 7.52279 5.24964
1864 1 21.4978 8.30662 4.70996
2108 1 22.3275 7.56104 4.46383
2197 1 23.9456 8.0802 4.98061
2198 1 23.2863 7.37221 4.83702
1885 1 22.8953 8.15199 5.39793
2130 1 25.6924 7.26002 4.52171
2202 1 24.6803 7.3987 5.36368
2451 1 25.8455 8.49783 5.24127
2443 1 26.7217 7.75131 5.05106
2444 1 27.6241 7.9431 4.85163
2203 1 27.9166 7.3901 5.68958
209 1 28.7032 7.48171 4.78512
2439 1 29.3358 8.48629 5.39184
211 1 29.785 7.6192 4.47404
2292 1 0.541062 9.76762 4.78761
44 1 1.06631 8.89314 5.04774
43 1 0.523471 9.31041 5.70414
34 1 1.64261 9.90195 4.7502
33 1 2.10038 9.18157 5.23122
359 1 3.13598 9.65166 4.78577
59 1 3.98435 8.96522 5.70037
261 1 4.37574 9.95663 4.88883
600 1 4.74811 8.85569 5.07196
599 1 5.29127 9.37714 4.48194
604 1 6.96039 9.39715 4.29043
598 1 6.04482 8.67386 4.4786
368 1 6.19485 9.62853 5.11696
367 1 7.08494 9.31089 5.381
597 1 5.82639 8.70884 5.37541
585 1 8.00888 8.96991 5.41522
583 1 8.92647 9.85166 4.60455
914 1 9.17484 8.90633 4.95237
924 1 8.71598 9.67846 5.63998
913 1 10.119 9.2281 4.89583
1223 1 11.7704 9.37119 5.38032
1224 1 11.9069 9.11576 4.38855
1236 1 12.8303 9.29431 5.16702
1245 1 13.8153 9.26188 4.34376
1247 1 14.4621 9.44208 5.34308
1315 1 15.1569 9.3212 4.65746
1316 1 15.5553 9.71058 5.49391
1579 1 16.6923 9.15144 5.39671
1580 1 16.5814 9.59261 4.5782
1904 1 18.4047 9.33965 4.67194
1561 1 17.5607 9.77244 5.13303
1887 1 19.8612 9.66861 4.45631
1888 1 19.9652 9.06576 5.247
1895 1 19.2965 9.91675 5.47806
1872 1 20.835 9.25717 4.50918
1890 1 21.0573 8.65813 5.55146
1637 1 22.3452 9.16636 4.59371
1643 1 21.7641 9.61764 5.31129
1638 1 22.7835 9.19407 5.44056
2189 1 24.1574 8.95248 4.32428
1949 1 23.5404 9.6985 4.93126
1950 1 23.8128 8.97234 5.50192
2512 1 24.7191 9.49733 5.65068
2452 1 24.8737 8.60662 5.23013
2511 1 25.5334 9.40954 5.20049
2517 1 26.4911 9.0428 4.53228
2119 1 26.6299 8.98692 5.67789
1975 1 27.2175 9.61053 4.97044
2458 1 28.4126 8.88525 4.76989
2120 1 27.5873 8.63902 5.69536
2527 1 28.84 9.89127 4.42632
2291 1 29.6876 9.30002 4.77636
300 1 0.652843 0.475136 5.87758
2377 1 0.284527 1.08929 7.03572
40 1 1.60505 1.32254 5.79662
70 1 2.30317 0.58314 6.39996
364 1 4.0279 0.00542677 5.95119
67 1 4.12623 0.745755 6.69678
374 1 5.55733 1.17075 6.57978
363 1 4.72902 0.603994 5.7444
373 1 5.93469 0.625532 5.84437
618 1 6.9746 0.257386 5.81392
323 1 7.10137 1.30825 6.93742
622 1 8.0348 0.770981 6.47829
681 1 8.84737 0.939741 5.98801
698 1 9.72352 0.128486 6.74556
674 1 10.7067 0.677276 6.55402
1238 1 12 1.21461 5.77098
1572 1 12.6922 0.666554 6.63004
1571 1 13.6982 0.819277 6.61839
1322 1 14.5459 0.278443 6.69078
1332 1 14.7998 1.18935 5.8676
1331 1 15.3217 1.07712 6.71226
1323 1 16.6296 0.12375 6.45444
1333 1 16.2558 1.398 6.54801
1661 1 17.3999 0.748735 5.86848
1662 1 17.1896 0.86693 6.8116
1897 1 18.1821 0.707029 6.67369
1657 1 19.9389 0.648592 5.79372
1898 1 19.0906 0.204225 6.53873
1655 1 19.8287 1.30665 6.63513
1720 1 20.816 1.17785 6.20264
1737 1 21.2896 0.0783274 6.71139
1738 1 20.3438 0.282188 6.63559
1647 1 21.684 0.87974 5.81214
2210 1 22.2494 0.6865 6.80331
1980 1 21.476 1.1822 7.09822
1954 1 23.2256 0.719585 6.39886
2224 1 24.1748 1.01187 6.93405
1922 1 24.4164 0.288125 6.20542
2223 1 25.0584 0.570875 7.09199
1978 1 25.9506 0.907823 6.72721
2531 1 26.0806 0.0165281 7.12281
2242 1 28.1354 1.00344 6.87088
2241 1 27.3697 0.713412 6.41632
299 1 29.8656 1.0033 6.02806
2283 1 29.7607 0.0204247 6.66606
301 1 0.365431 2.04088 6.0378
302 1 1.02841 1.69861 6.65492
143 1 1.0426 2.65516 6.70077
48 1 2.05588 2.42032 6.22113
69 1 2.07185 1.45538 6.91976
62 1 2.96503 1.86084 6.25593
197 1 3.80648 2.78099 6.18876
365 1 4.53133 1.82297 6.50087
438 1 5.69628 2.06263 6.10331
198 1 4.81723 2.69195 6.2488
324 1 6.6898 1.46535 6.12434
759 1 6.85808 2.56159 5.77008
792 1 6.85921 2.40428 6.84946
689 1 8.3199 1.86882 6.81429
684 1 7.68564 1.56529 6.03673
668 1 7.83527 2.79056 6.35464
690 1 8.72528 2.27992 6.07598
641 1 9.74051 1.57442 6.47467
673 1 11.0831 1.47265 6.42971
642 1 10.3072 2.37565 6.51096
1070 1 12.7906 1.89042 6.59286
1013 1 11.6062 2.47067 6.0826
678 1 13.3838 1.57454 5.74952
1069 1 13.5567 2.52273 6.70681
1021 1 14.1819 1.74713 6.68593
1089 1 15.4991 2.25105 6.3044
1334 1 16.555 2.11504 5.98453
1320 1 17.9877 2.12774 5.94326
1366 1 17.2025 1.89929 6.74818
1326 1 18.8713 2.21374 6.52459
1410 1 19.8926 2.5104 6.33509
1409 1 20.7513 2.27231 6.69922
1636 1 22.4904 1.59137 5.80702
1986 1 21.8116 2.5834 6.62281
1653 1 23.0417 2.38025 6.24902
1957 1 23.7493 2.79606 7.00435
1951 1 24.09 1.72284 6.03716
1646 1 23.0393 1.6593 6.91582
1952 1 25.0463 1.46441 6.07146
1972 1 24.8704 2.27339 6.76667
1974 1 25.9946 1.79382 6.1183
2373 1 27.0919 1.79608 6.46452
1967 1 26.0039 2.82113 6.44891
2286 1 27.8546 2.27838 5.73798
2374 1 27.1882 2.72283 6.42596
2310 1 28.2939 2.1962 7.00325
2303 1 28.8446 1.4412 5.89134
2383 1 29.3376 2.74691 6.23629
141 1 0.986761 3.35831 5.87836
142 1 0.159149 3.50471 6.2549
150 1 1.22009 3.77686 6.91158
125 1 2.32072 4.0272 5.74472
47 1 1.95131 3.34533 6.44624
51 1 2.91425 3.22257 6.00988
52 1 2.92046 3.21162 7.06022
457 1 3.72192 3.90595 6.41411
458 1 4.50237 3.46133 6.86913
440 1 6.41395 3.94267 5.71787
449 1 6.05209 3.12544 6.53875
456 1 6.98788 3.43387 6.52296
694 1 8.46464 4.01885 6.70157
762 1 9.22391 3.55336 5.72055
675 1 8.76655 3.11656 6.95149
783 1 9.75634 3.41401 6.61951
777 1 10.9465 3.76831 6.22619
1096 1 12.5089 2.98438 6.94218
771 1 11.9926 3.96899 6.12833
1161 1 14.0403 3.08366 5.76648
1082 1 13.0101 3.00141 5.85672
1172 1 13.2742 4.16214 6.54451
1150 1 14.027 3.59921 7.02725
1133 1 15.0935 3.65689 5.80879
1149 1 14.6229 2.88865 6.68436
1506 1 14.9078 4.25897 6.96273
1418 1 15.6773 2.97337 7.08897
1412 1 17.1067 2.94403 5.74267
1084 1 16.3319 3.61963 6.49114
1164 1 16.5608 4.24988 5.73497
1083 1 16.9683 3.50741 7.13787
1163 1 17.3332 3.87361 6.19501
1751 1 18.529 3.28344 6.22955
1427 1 17.898 3.08484 7.07518
1670 1 19.322 3.15746 6.82173
1726 1 19.1735 4.09014 5.91897
1664 1 21.1457 4.22396 6.26198
1688 1 20.0926 3.86678 6.71855
1690 1 21.1606 3.41674 6.8152
1689 1 22.0429 3.61868 6.42082
1970 1 24.2628 3.0419 5.97905
1969 1 23.3744 3.41669 6.0606
1958 1 23.0545 3.44269 7.06593
2064 1 23.8947 3.96186 6.80966
2045 1 24.914 3.97725 6.05598
2063 1 24.7685 3.48757 7.0218
2137 1 26.7063 3.48811 6.83846
2138 1 25.808 3.83041 6.74958
2372 1 27.584 3.68171 6.01904
2381 1 28.3934 4.23046 6.85488
2382 1 28.2985 3.33465 6.72109
2384 1 29.2669 3.61158 5.77441
149 1 1.24325 4.45619 6.15235
2454 1 0.0834745 4.45124 6.02656
134 1 0.646886 5.28301 6.38114
133 1 0.44583 4.55179 6.90459
547 1 2.61342 4.3745 6.80991
469 1 2.58861 5.37094 6.63775
236 1 1.77948 5.2916 5.80246
192 1 3.08461 4.82895 6.02439
518 1 4.09383 4.82277 6.59922
517 1 4.89838 4.37171 6.38247
521 1 5.09546 5.33757 6.40856
439 1 5.80423 4.68966 5.79388
763 1 6.73378 5.27201 5.81793
464 1 5.90108 4.51864 6.88602
764 1 6.21588 5.48824 6.58887
455 1 7.29632 4.33953 6.33621
693 1 8.4601 4.33312 5.81799
443 1 7.80775 5.17875 6.76951
769 1 9.55456 5.16142 6.28126
765 1 8.98963 4.86085 7.02324
770 1 10.0985 4.43991 6.6896
1103 1 11.1792 5.00082 6.68212
1093 1 11.7109 5.5653 5.80656
772 1 12.3707 4.87993 6.32439
1104 1 11.8534 4.55806 7.11983
1171 1 13.3953 4.8442 5.87698
1192 1 13.8216 4.82329 7.02056
1505 1 14.3332 4.38605 6.19085
1191 1 14.5282 5.50764 6.89338
1501 1 15.6137 5.24836 6.94239
1414 1 15.7278 4.62435 6.1883
1413 1 16.6013 4.99094 6.33414
1665 1 17.9539 5.40197 5.98397
1666 1 18.1611 4.47775 6.16577
1423 1 17.5825 5.275 7.13094
1686 1 19.863 4.95834 6.58201
1405 1 18.8575 4.8497 7.03609
1663 1 20.723 5.08687 6.17786
1754 1 21.9649 4.79116 6.81832
1753 1 21.923 4.78156 5.79941
1684 1 23.0389 4.95113 6.89363
1963 1 23.47 4.89585 5.95109
2054 1 23.9352 5.37151 6.93375
1964 1 24.3683 4.72503 6.34591
1722 1 24.7814 5.70989 6.13605
2043 1 25.5232 4.89452 6.29732
2044 1 25.049 4.7139 7.11178
1811 1 26.1898 4.76325 7.0535
1812 1 26.4759 4.35456 6.19098
2449 1 26.6875 5.41664 5.91152
2371 1 27.4006 4.53622 6.46073
2466 1 28.7224 4.73191 6.03163
2453 1 29.4756 4.37116 6.76448
114 1 0.0421611 6.32747 6.09449
235 1 1.52108 5.75248 6.67218
206 1 2.24571 6.3075 6.01458
220 1 4.05714 5.99069 6.31261
205 1 3.13122 6.47969 6.24724
285 1 3.78275 6.97865 7.13628
839 1 5.00641 6.53882 6.32957
840 1 5.78068 6.17995 5.85803
608 1 6.57615 6.74829 6.3617
849 1 7.07422 6.02531 7.02764
828 1 7.60316 6.09776 6.06558
526 1 7.92914 6.88225 6.65446
832 1 9.7247 6.14703 5.83564
851 1 8.69199 6.31937 5.98226
852 1 8.70255 5.7679 6.77414
822 1 9.38999 7.06445 6.35175
922 1 10.6008 7.12991 5.98417
843 1 10.6251 5.85757 6.18432
844 1 10.4371 6.45924 6.99317
1155 1 11.6179 6.30066 6.56056
1154 1 12.3484 6.60325 5.81931
854 1 12.5554 6.94397 6.77571
1182 1 12.6673 5.79604 6.52606
1181 1 13.6017 6.02992 6.61601
940 1 13.6886 7.07093 6.9978
1178 1 14.8905 5.91064 5.94585
1256 1 14.5387 6.98424 6.34837
1415 1 15.5757 6.90796 6.42647
1416 1 15.9952 6.07379 6.151
1507 1 16.9773 6.06543 6.66342
1500 1 16.7195 6.80733 5.90027
1508 1 16.2611 6.59029 7.02418
1744 1 17.7732 6.35367 5.97938
1743 1 18.1284 6.5259 6.84168
1823 1 17.1745 7.10936 6.84571
1422 1 18.75 6.76066 6.02329
1802 1 19.9746 7.04865 6.09464
1477 1 19.0728 5.79638 6.23896
1826 1 19.175 6.5885 6.85713
1735 1 19.9846 6.10867 6.723
1724 1 20.959 6.0732 6.3307
1740 1 22.1985 5.88239 6.52514
1879 1 22.2651 6.86109 6.7024
1721 1 23.9422 5.80931 5.72758
2113 1 22.977 6.63265 5.74999
2053 1 23.4333 6.14213 6.94708
2116 1 24.0809 6.63227 6.18364
2149 1 24.2621 7.10076 7.04989
2134 1 25.7025 6.17319 6.08949
2115 1 24.9864 6.88635 6.22925
2450 1 26.6525 6.09437 6.58176
2139 1 26.4157 7.07262 6.11283
2435 1 27.5487 6.40563 6.16185
216 1 28.4831 6.00462 6.51386
215 1 29.1781 5.82414 5.90392
2204 1 28.6317 6.99374 6.1348
213 1 0.505561 7.56897 5.76956
224 1 1.39993 7.44198 6.37027
222 1 0.247104 7.16573 6.84353
218 1 0.0642702 8.04377 6.49831
223 1 2.12493 7.88779 6.90912
227 1 2.58567 7.32709 6.16721
2307 1 1.47871 8.27357 5.83213
295 1 2.58436 8.41538 6.08309
270 1 4.0112 7.25362 6.26679
228 1 3.1172 7.82464 6.76426
60 1 4.06939 8.4064 6.50938
611 1 4.95094 7.84937 6.31445
581 1 6.1211 7.87684 6.02649
607 1 5.88837 7.26129 6.80447
927 1 6.63837 8.30636 7.05693
928 1 6.97194 7.46239 6.99155
915 1 7.4258 7.54933 6.0063
586 1 8.04665 8.34029 6.21989
834 1 9.12528 8.07012 6.02283
821 1 9.80728 7.8194 6.66863
857 1 8.63067 7.70969 7.02518
936 1 11.3203 8.0078 5.84922
935 1 10.8359 7.99599 6.71321
1251 1 12.5406 7.56455 5.72198
853 1 11.9288 7.6656 6.5086
1266 1 13.5274 8.54166 5.99684
1166 1 14.2507 8.00133 6.98763
1265 1 13.1163 7.87096 6.62417
1335 1 15.4357 8.01812 6.70404
1575 1 14.7655 8.4567 5.95634
1588 1 16.631 7.98971 6.49233
1806 1 17.7681 7.48594 6.15509
1494 1 17.696 8.50997 6.39607
1825 1 19.1704 7.49794 6.98711
1816 1 18.6213 8.34384 6.54887
1603 1 19.7527 8.41259 7.05186
1793 1 21.078 7.46521 6.25188
1794 1 20.6621 7.69768 7.05422
1884 1 22.1128 7.47727 5.7694
1889 1 21.9272 8.47656 5.78487
1875 1 21.7594 8.36431 6.88948
1886 1 22.7363 8.03346 6.28992
2195 1 23.5733 8.56985 6.78608
1786 1 23.5596 7.64033 5.83284
1785 1 23.2948 7.21553 6.69963
2201 1 24.4437 8.0864 6.06144
2207 1 25.4898 7.73852 6.13805
2141 1 25.0724 8.08469 7.0411
2302 1 26.8587 8.02888 6.15514
2301 1 26.4111 8.28432 6.93466
2440 1 28.5167 8.35489 5.9731
2455 1 27.2733 7.21067 6.6911
217 1 29.191 7.79203 6.57547
2525 1 1.35018 8.71548 6.74242
2312 1 0.977145 9.96907 6.84727
2516 1 0.362517 9.0092 6.84504
315 1 1.83045 9.6152 6.06988
316 1 2.04783 9.65826 6.97722
296 1 2.80712 8.86403 6.9037
50 1 3.11378 9.35396 5.9933
388 1 3.37053 9.8647 6.97299
355 1 4.94418 9.20643 5.95603
623 1 4.88771 8.94644 6.95658
356 1 5.22795 9.99264 6.45499
624 1 5.74812 8.70318 6.68186
945 1 6.18635 9.72428 6.69979
946 1 6.7345 8.99417 6.31036
617 1 7.61927 9.72904 6.30266
838 1 9.03369 8.72651 6.83045
923 1 9.54922 9.18366 5.84898
697 1 8.7854 9.98198 6.82671
837 1 9.99549 8.92434 6.76794
1012 1 11.3311 9.80891 6.57901
669 1 10.5243 9.74133 5.73603
670 1 10.8414 8.86158 6.08606
1241 1 12.3685 8.6116 5.99558
1568 1 12.3837 9.64839 6.6743
1487 1 13.3864 9.80956 6.98939
1488 1 13.3457 9.70595 6.02122
1258 1 15.3009 9.04967 7.04753
1257 1 14.3795 9.03309 6.80507
1324 1 15.7079 9.97061 6.47774
1493 1 16.9425 9.09411 6.43661
1336 1 15.955 8.7462 6.25978
1581 1 17.5377 9.75271 6.92736
1582 1 18.0009 9.83948 6.05306
1819 1 19.8323 9.3355 6.38101
1815 1 18.8585 9.10121 5.99936
1891 1 18.8971 9.22302 7.0521
1820 1 20.6216 8.82027 6.58616
1644 1 21.915 9.37993 6.22122
2196 1 22.8416 9.06034 6.42911
1921 1 24.0365 9.96103 7.02098
2209 1 22.8638 9.92872 6.94511
1953 1 23.4564 9.87617 6.11944
1984 1 25.4361 9.97396 6.26341
2208 1 25.3511 8.72332 6.16045
2125 1 25.2535 9.18604 7.10688
2126 1 24.5102 9.10858 6.53469
2532 1 26.4669 9.92669 6.21894
2216 1 26.8729 9.3941 7.06589
2297 1 28.5279 9.66011 6.1048
2521 1 27.4776 9.65925 6.14455
2522 1 27.7731 8.93976 6.6707
2298 1 28.4016 9.83313 7.03436
2294 1 29.5369 9.57994 5.79578
2515 1 29.4566 8.78681 6.85352
66 1 1.2872 1.02815 8.53151
2305 1 0.301169 0.866738 8.44389
2311 1 1.45319 0.726571 7.27266
74 1 2.23924 0.79488 8.01912
1 1 3.02181 1.32938 7.21487
2 1 3.49599 0.679317 7.79227
453 1 5.6833 1.26092 8.25126
605 1 4.73809 0.809716 7.80845
371 1 5.44314 0.129504 7.55953
372 1 6.21282 0.647115 7.39013
390 1 6.75891 0.475007 8.3302
621 1 8.11893 0.56798 7.4798
704 1 8.40835 0.766212 8.48653
699 1 9.42505 0.152654 7.95596
679 1 9.11912 1.30742 7.51086
1018 1 10.0978 1.04224 7.3829
696 1 10.0606 0.888585 8.54962
933 1 10.8028 0.232054 8.30577
1011 1 11.8305 0.365296 7.16919
1261 1 11.542 0.869803 7.90338
1087 1 12.4436 1.32473 7.40473
1591 1 13.0077 0.393857 7.83774
1337 1 14.0708 0.0428059 8.54465
1009 1 15.4441 0.23844 7.56228
1023 1 14.4442 0.942285 7.74761
1010 1 16.1429 0.91656 7.50813
1349 1 17.8336 0.555021 7.69889
1899 1 19.7045 0.622009 7.55815
1656 1 20.4872 1.34316 7.34511
2220 1 21.354 0.960062 8.07755
1652 1 20.2541 0.705912 8.42365
1694 1 22.3549 1.21003 8.52841
2219 1 22.1314 0.439927 7.80061
2218 1 23.1132 0.737733 7.58242
2217 1 23.5933 0.0215943 7.93991
1993 1 24.2924 0.866546 8.04376
1994 1 25.0339 0.227009 8.10091
1990 1 25.849 0.875198 7.99493
1977 1 26.7091 1.23409 7.23292
1924 1 26.7098 1.00774 8.47199
2530 1 27.9541 0.61422 7.97861
2529 1 27.6074 1.41599 8.33453
1997 1 29.1507 0.909754 8.21789
2378 1 0.887351 1.57148 7.67527
2399 1 0.0753697 2.37002 7.2697
81 1 1.02294 2.65373 7.89432
82 1 0.476757 2.22638 8.52371
75 1 2.73294 2.17468 8.40554
144 1 1.88943 2.59038 7.26639
76 1 1.84651 1.81659 8.20637
68 1 4.01969 1.48016 7.30876
307 1 3.41457 2.37297 7.41957
79 1 3.96174 1.47857 8.43477
366 1 4.9736 1.82105 7.37325
450 1 5.4964 2.78646 7.22665
308 1 4.31932 2.46473 7.71174
707 1 6.68697 1.77732 7.97732
708 1 6.05253 1.9127 7.33239
452 1 6.03267 2.49795 8.15393
702 1 7.93742 2.50668 7.69503
703 1 8.43884 1.71256 8.27077
767 1 7.19138 2.40027 8.54217
676 1 9.2486 2.41578 7.2551
680 1 9.43371 1.87496 8.16923
1116 1 8.82716 2.83466 8.4557
1017 1 10.9494 1.58027 7.41745
1092 1 11.0517 2.78038 8.02174
1268 1 11.3489 1.80925 8.48661
1006 1 10.0381 2.65175 8.46987
1263 1 12.0921 2.28586 7.75006
1088 1 12.3165 1.43401 8.3637
1022 1 13.5874 1.48566 7.47624
1024 1 14.0304 1.45075 8.45763
1264 1 13.0069 2.30815 8.04982
1016 1 13.9048 2.83611 7.68066
1015 1 14.4666 2.03371 7.76986
1028 1 15.4933 1.8764 7.46974
962 1 15.0476 2.73031 8.2752
1027 1 15.2621 1.60172 8.40391
1365 1 16.5107 2.24387 7.28874
1345 1 16.3031 2.01782 8.24231
1346 1 16.958 1.51089 7.85289
1667 1 18.1273 1.64254 7.72304
1428 1 17.4022 2.84316 7.75074
1325 1 18.7006 2.53551 7.43067
1906 1 19.9023 1.92688 8.2022
1668 1 18.8915 1.4879 7.33905
1905 1 19.6473 2.09704 7.25301
1747 1 20.4138 2.78778 7.58944
1700 1 21.0547 1.94664 8.09416
1979 1 22.0563 1.71973 7.62754
1645 1 22.7593 2.46642 7.31739
1996 1 22.4077 2.3523 8.37416
2214 1 24.1562 1.90722 7.57536
2213 1 24.1677 1.98512 8.50874
2056 1 23.1504 1.67982 7.98107
1971 1 25.1662 1.60999 7.49003
1981 1 25.5008 2.44155 8.43817
2075 1 25.2347 2.7685 7.49132
1968 1 26.1922 2.2031 7.21486
1923 1 26.4712 1.84237 8.19343
2380 1 27.0456 2.6618 8.45705
2379 1 27.2831 2.45854 7.5021
1998 1 28.6593 1.82235 8.33888
2309 1 28.9365 2.78372 7.49501
2400 1 29.5688 2.41499 8.08305
72 1 1.35026 4.25608 8.27306
2472 1 0.272318 3.25489 7.90609
160 1 2.06089 2.9572 8.19064
159 1 2.14779 3.66914 7.56937
548 1 3.32715 4.0636 7.48281
524 1 4.10535 3.47511 7.93541
405 1 3.12459 3.56358 8.49185
523 1 4.99599 3.86725 8.09019
463 1 6.07335 3.80469 7.39947
791 1 7.02072 2.95953 7.53273
877 1 7.01857 4.15999 7.42581
378 1 5.98896 3.44546 8.50953
701 1 7.90194 3.41562 7.41231
784 1 9.38167 3.60184 7.5152
774 1 8.69382 3.85085 8.56263
1105 1 10.64 3.79579 7.32417
1095 1 11.5732 3.20242 7.2731
1091 1 11.5221 3.67212 8.17105
1099 1 13.1087 3.39526 7.70436
1512 1 14.1478 3.97394 7.9349
1511 1 14.8689 3.468 7.57873
1378 1 15.4703 3.96236 8.55813
1436 1 16.5206 3.16122 8.04995
1417 1 15.927 3.84815 7.44296
1518 1 17.4756 3.87932 8.29014
1517 1 18.3129 3.77219 7.92778
1748 1 19.6007 3.23072 7.82036
1669 1 19.0545 3.94499 7.29261
1284 1 19.7519 4.1527 8.53863
1682 1 21.0268 3.89374 7.72652
1681 1 20.6682 3.32772 8.43082
1985 1 21.5926 2.87624 7.55381
1755 1 22.4434 4.17981 7.67615
2059 1 21.8573 3.54862 8.29005
2060 1 22.7952 3.49026 8.55497
2071 1 23.9826 3.34669 8.29482
2093 1 23.4425 4.2488 8.18217
2072 1 24.4235 4.15951 7.92778
2057 1 25.6959 4.15897 7.86513
2076 1 26.139 3.21716 7.72346
2058 1 26.6054 4.16791 8.06581
2061 1 27.5225 3.4677 7.55646
2393 1 28.0944 2.8803 8.29221
2471 1 29.628 3.36093 7.14772
145 1 28.5892 3.77063 7.95949
2324 1 29.6475 4.27628 7.74873
2323 1 0.308136 4.89033 7.93159
140 1 1.03337 5.56914 8.26501
147 1 2.59393 4.94892 7.62324
148 1 1.7386 4.6015 7.35423
136 1 2.10747 5.15897 8.48107
153 1 4.20329 4.54615 7.69964
154 1 3.73303 5.33217 7.44506
533 1 4.9819 5.28359 7.45467
528 1 5.12951 5.23274 8.51658
527 1 5.86491 4.84172 8.08008
878 1 6.91981 4.42009 8.39895
850 1 6.64094 5.3954 7.5567
773 1 8.47325 4.29188 7.76145
444 1 7.63466 5.10008 7.73317
766 1 8.77203 5.38742 7.76703
848 1 9.60352 4.57578 7.77521
847 1 10.0516 5.3581 7.32138
1106 1 10.8821 4.6523 7.59703
787 1 10.9268 5.58779 8.15087
1108 1 12.1669 5.68344 7.3381
1107 1 12.187 5.07636 8.11339
1100 1 12.8035 4.31133 7.53427
1176 1 13.2041 5.31605 7.79653
1020 1 13.1853 4.52866 8.53977
1117 1 14.4306 5.64885 7.96117
1118 1 14.8477 4.74201 8.05685
1426 1 15.8224 4.77571 7.87839
1425 1 16.7162 4.45802 7.58118
1502 1 16.4152 5.55766 7.33733
1042 1 15.8437 5.68616 8.24411
1361 1 17.0621 5.26757 8.26945
1424 1 17.8743 4.31338 7.24008
1439 1 18.1766 4.91269 8.04156
1406 1 18.5466 5.69462 7.32783
1440 1 19.0875 4.80826 8.0874
1685 1 19.865 5.32601 7.48008
1687 1 20.0423 4.29897 7.53017
1746 1 20.8338 4.76822 7.15636
1745 1 20.7544 4.83534 8.08512
1749 1 21.6721 5.69192 7.77292
1756 1 21.8068 4.75272 8.07364
1683 1 22.7743 5.29978 7.74147
2136 1 24.4145 5.44752 7.91352
2004 1 25.4816 5.13783 8.19422
2074 1 25.579 5.68558 7.35995
2048 1 26.6568 5.29427 7.91928
2047 1 27.5081 5.49098 7.60347
2062 1 27.675 4.39312 7.5189
2476 1 28.3618 5.60494 8.05351
146 1 28.5033 4.62173 8.32598
2375 1 29.7177 5.57681 7.14903
2376 1 28.8878 5.0651 7.26436
2461 1 0.719658 6.80709 8.09635
2462 1 0.705975 6.31803 7.23443
470 1 2.81071 5.99818 7.26524
139 1 1.69805 5.79145 7.66751
174 1 2.32605 6.23379 8.28492
231 1 2.52189 7.06641 7.63851
232 1 1.61232 6.81159 7.32055
540 1 3.34701 6.29656 7.9965
519 1 4.20974 6.21214 8.51552
286 1 4.57281 6.48137 7.40347
534 1 5.60504 6.01163 7.47877
609 1 5.49525 6.95454 7.75239
535 1 5.90453 6.0687 8.5058
610 1 6.48165 6.74779 7.70302
560 1 7.47971 6.28266 8.11361
525 1 8.20655 6.32235 7.37713
1184 1 9.75126 6.09194 8.2641
1183 1 9.68042 7.09508 8.41072
858 1 9.09681 6.90413 7.38279
932 1 11.2761 7.04687 7.33048
931 1 11.5295 6.48172 8.04531
1187 1 12.569 7.10846 8.49833
1175 1 13.0004 6.24985 7.75916
1193 1 13.4551 7.10482 8.08258
1041 1 15.2948 6.13579 7.5846
939 1 14.3797 6.63736 7.46031
1253 1 15.007 6.62474 8.45969
1509 1 16.4063 6.7608 8.08428
1429 1 17.4628 6.28386 7.56863
1430 1 18.0229 5.97797 8.24651
1851 1 19.1957 5.89086 8.21241
1831 1 18.5911 6.82285 7.84036
1736 1 19.8691 6.4737 7.60973
1750 1 20.8449 5.84362 7.37191
1803 1 21.3712 6.78937 7.24319
2083 1 20.057 6.13212 8.54621
1809 1 20.5574 7.03576 8.09002
1804 1 22.1972 6.60667 7.69757
2135 1 24.0189 6.34526 7.86282
1814 1 23.2284 7.05245 7.81907
2073 1 24.9296 6.31066 7.19598
2152 1 25.089 6.25619 8.50883
2156 1 26.0921 7.13497 8.35942
2456 1 26.542 7.10907 7.18636
2086 1 26.2017 6.19463 8.17896
2154 1 27.9449 6.63817 7.26415
2153 1 27.1723 6.54484 7.82004
2463 1 29.7144 5.81631 8.21854
2475 1 28.7733 6.2669 7.5569
221 1 0.886077 7.74976 7.26576
311 1 0.516854 8.04046 8.15869
161 1 1.55019 7.78162 8.05774
318 1 3.86377 8.08172 7.67013
539 1 3.43163 7.21281 8.36269
317 1 2.95223 8.13678 7.79375
612 1 4.80487 7.58357 7.23957
619 1 4.46713 7.30173 8.25649
298 1 4.84174 8.39334 7.87623
297 1 5.75823 8.04774 7.70119
876 1 6.93413 7.76902 8.04188
614 1 7.76845 8.20762 7.4945
948 1 8.2845 8.22152 8.31058
875 1 7.70475 7.28668 7.77857
929 1 8.69518 7.22405 8.23071
692 1 9.37824 7.8975 7.63861
691 1 10.2127 7.57238 7.68263
942 1 11.273 8.39129 8.18864
869 1 10.8806 7.43371 8.4343
1244 1 12.0292 8.38991 7.22011
870 1 11.7307 7.5311 8.09479
1274 1 12.7834 7.84637 7.69724
1179 1 13.4842 8.54005 7.43788
1165 1 14.9586 8.2378 7.62272
1344 1 15.4032 7.16332 7.54066
1343 1 15.9705 7.99246 7.55346
1584 1 16.6105 8.0517 8.43202
1824 1 17.958 7.56182 7.27442
1510 1 17.2174 7.24906 7.92477
1587 1 17.1572 8.22499 7.29523
1910 1 18.7316 8.2371 7.91225
1832 1 19.3063 7.30182 8.12793
2147 1 21.2986 7.61152 7.82077
1828 1 20.0812 7.99754 8.04409
1880 1 22.4872 7.50982 7.30328
2225 1 22.2703 8.19344 8.28256
1760 1 22.1611 7.14613 8.5702
2150 1 24.0289 7.75111 7.68182
2143 1 23.38 8.50605 8.31976
2142 1 25.4837 7.24082 7.16552
2221 1 24.9478 7.3938 8.17399
2227 1 25.8841 8.50079 7.80414
238 1 27.907 7.78506 7.33202
2299 1 27.3081 8.44145 7.83275
2300 1 28.0227 8.03062 8.3746
237 1 28.7937 7.56171 7.62588
2408 1 29.8209 7.20711 8.45615
312 1 29.8334 7.76813 7.54738
2289 1 0.474391 9.64279 7.96892
2290 1 1.42249 9.88854 7.84462
63 1 2.67223 9.82447 8.01577
2526 1 1.57601 8.71789 7.66656
55 1 3.52631 9.25786 7.91752
387 1 4.31617 9.79806 7.30485
379 1 5.53756 9.15438 7.68246
629 1 4.68141 9.72285 8.38648
380 1 6.42002 9.5932 7.83255
626 1 7.32261 8.91059 8.27187
613 1 7.46009 9.11867 7.17049
687 1 8.42084 9.22015 7.77898
947 1 9.06132 8.6996 8.51803
688 1 9.39979 9.0852 7.6235
1243 1 11.2599 8.99097 7.26537
700 1 10.2102 9.86013 7.55499
941 1 10.47 8.76839 7.83602
1567 1 12.473 9.43316 7.60674
1004 1 11.7118 9.90092 8.23242
1273 1 12.5681 8.59346 8.33424
1180 1 13.3741 9.31463 8.1457
1321 1 14.428 9.7401 7.4976
1594 1 15.0699 9.67465 8.46593
1593 1 15.4622 8.80406 8.43107
1342 1 16.2806 9.00487 7.77282
1341 1 16.4655 9.89213 7.49822
1912 1 17.4872 8.68815 8.16252
1350 1 17.4381 9.70395 7.98583
1911 1 17.9975 8.93405 7.42346
1892 1 18.9617 9.82607 7.79151
1604 1 19.5871 8.87072 7.9041
2148 1 21.0879 8.58468 7.75937
1900 1 20.1921 9.79864 7.61809
2229 1 21.1133 9.79308 8.13414
1876 1 21.786 9.3021 7.27463
2232 1 22.2206 9.36084 8.26322
2231 1 22.8679 9.12461 7.52087
2205 1 24.1527 9.01624 7.82633
2206 1 25.0224 8.96473 8.24557
2215 1 26.8555 9.95416 7.82668
2484 1 25.868 9.68696 8.14581
2487 1 27.8423 9.40712 7.75241
2284 1 29.4516 9.65267 7.51777
2488 1 28.6775 9.52745 8.23336
2524 1 28.6524 8.67664 7.48812
2523 1 29.4681 8.66733 8.01018
3 1 0.567477 0.545 9.77067
65 1 0.941333 0.156715 8.83083
306 1 1.48983 0.955899 9.47972
11 1 2.45411 0.85128 9.60744
64 1 2.16845 0.0658546 8.82319
73 1 2.94048 0.934045 8.74064
639 1 3.47358 0.670846 9.97974
6 1 3.73461 0.105433 8.84282
77 1 4.0882 1.3663 9.46416
606 1 4.66308 0.804912 8.73429
386 1 5.44309 0.923735 9.44162
385 1 5.61759 0.231942 8.87931
712 1 7.14143 1.33916 8.80568
384 1 6.49957 0.886722 9.85892
389 1 7.2009 0.129116 9.09034
926 1 8.16629 0.0568119 9.47786
715 1 8.99829 0.656165 9.3193
1025 1 10.9261 0.942755 9.16875
1038 1 10.343 0.181096 9.83203
1026 1 11.234 0.00477092 9.16979
1262 1 11.8279 0.737253 8.79644
1592 1 13.081 0.725289 8.76534
1355 1 14.0004 0.66935 9.31585
966 1 13.0653 0.159728 9.72496
1030 1 12.9519 1.27869 9.93064
963 1 15.6987 0.563937 9.4797
1338 1 14.8903 0.65886 8.61378
964 1 15.0391 1.20418 9.49698
1577 1 16.0476 0.694328 8.62831
1357 1 16.7568 0.33763 9.48675
1329 1 18.0892 1.04055 8.6766
1330 1 17.2413 0.623907 8.58308
1358 1 17.7133 0.500317 9.63679
1758 1 19.3332 0.58422 9.00752
1618 1 18.7274 1.04592 9.867
1676 1 20.3369 0.687007 9.62641
1651 1 21.0755 0.480098 8.91104
1901 1 22.4924 1.14804 9.64921
2092 1 22.163 0.216417 9.13683
2238 1 23.1967 0.686787 8.58497
1915 1 22.8646 0.0927839 9.91326
2237 1 23.6024 0.809332 9.46023
1991 1 24.5919 0.968754 9.65225
1999 1 25.134 0.202338 9.20848
1989 1 25.3286 1.33685 8.63096
1935 1 26.1543 0.445197 9.7808
2483 1 26.4856 0.0142061 8.77415
2321 1 27.5146 1.04923 9.30814
2481 1 28.4206 0.984521 8.92714
2270 1 28.6008 0.882393 9.92104
2269 1 29.5407 0.950752 9.61611
2306 1 29.7678 0.0989691 8.81096
2482 1 28.7518 0.0794856 9.13507
157 1 1.37059 2.45902 8.99148
305 1 0.649269 1.49483 9.25355
478 1 2.2558 2.75377 9.30555
80 1 3.79189 2.47238 8.62405
395 1 3.01957 1.81126 9.51528
396 1 3.44782 2.66298 9.62846
454 1 5.09126 2.01201 8.61167
465 1 5.13002 1.82106 9.82521
472 1 4.61749 2.50389 9.3545
451 1 5.82807 2.5458 9.10267
383 1 6.21637 1.65812 9.33187
711 1 7.98205 1.4466 9.23532
950 1 7.42255 2.22237 9.76956
768 1 7.94906 2.76873 8.9968
713 1 9.26099 1.90147 9.25849
695 1 10.2639 1.71075 9.17219
1267 1 11.6814 1.66449 9.35826
1036 1 12.0972 2.49006 9.85153
1035 1 11.6005 2.72598 9.03107
1102 1 13.9474 2.40942 8.79771
1101 1 13.144 1.98384 9.0936
1340 1 13.9624 1.72288 9.66631
1044 1 13.0415 2.84974 9.87324
1339 1 14.649 2.34443 9.64775
1363 1 15.6519 2.5449 9.97819
1432 1 16.8529 1.50163 9.16483
1364 1 15.7749 1.93471 9.25754
1302 1 16.5341 2.56008 9.16195
1367 1 17.6036 2.53581 9.79153
1368 1 17.878 1.60193 9.52385
1431 1 17.3566 2.0912 8.58789
1285 1 18.5473 2.2893 8.6902
1757 1 19.2079 1.55443 9.0228
1606 1 19.8211 1.55255 9.73586
1286 1 18.5915 2.55998 9.58898
1610 1 19.5135 2.64503 8.89761
1605 1 20.4311 1.59557 9.00954
1696 1 20.4242 2.61001 9.89255
1699 1 21.0472 2.50347 8.85833
1693 1 21.6064 1.66186 8.96566
1995 1 22.4728 2.73298 9.21256
2055 1 23.2299 1.66747 8.92937
1902 1 22.8604 2.05241 9.82623
2069 1 23.3768 2.63845 8.85132
1992 1 24.0115 1.73723 9.84817
1982 1 24.9049 2.44442 9.14946
2008 1 25.5804 1.47949 9.92626
2080 1 26.7401 1.91404 9.2002
2079 1 25.9224 2.41673 9.49766
2322 1 27.6121 1.79778 9.83138
2390 1 27.6157 2.74248 9.28787
2243 1 28.5683 1.90879 9.56811
2249 1 29.6955 1.71415 8.81595
2250 1 29.745 2.52858 9.30561
158 1 0.795438 3.01572 9.6349
90 1 0.816514 3.55442 8.70887
132 1 0.030912 3.98154 9.03565
89 1 1.61825 3.54261 9.22231
416 1 2.5961 3.71547 9.5026
545 1 3.92723 3.55463 9.30408
471 1 4.99386 3.0735 8.65819
546 1 4.61145 4.11549 9.01053
543 1 5.35387 3.51978 9.54046
377 1 6.32229 4.03554 9.21603
468 1 6.60336 3.09932 9.61721
531 1 7.65196 3.77221 8.71727
786 1 7.43946 3.66331 9.94971
798 1 8.49471 3.48435 9.86881
1115 1 9.30915 3.31155 9.1304
1005 1 10.2633 2.9498 9.40754
1110 1 10.485 3.721 8.72905
855 1 10.5917 4.06243 9.69848
1058 1 12.0992 3.51388 9.6911
1019 1 12.4741 3.88252 8.63258
1047 1 13.0149 4.02329 9.59799
1031 1 14.0637 4.15767 9.00343
1032 1 13.5501 3.41495 8.69695
1051 1 14.0437 3.36771 9.85335
1437 1 15.1637 3.77212 9.8059
961 1 14.7193 3.28346 8.96917
1377 1 15.7813 3.20767 9.12352
1835 1 16.3039 4.09278 9.56981
1435 1 16.5364 4.02485 8.57339
1295 1 17.7673 3.67986 9.75476
1301 1 17.2757 3.11055 9.0592
1296 1 18.6924 3.55757 9.92322
1294 1 19.6863 3.52047 9.4767
1609 1 18.8062 3.32354 8.81087
1695 1 20.7529 3.58125 9.84553
2067 1 21.6679 4.12989 9.98552
2068 1 21.7055 3.57575 9.29504
1940 1 22.6433 3.68064 9.60994
2070 1 23.6692 2.94887 9.6579
2088 1 23.7132 4.0343 9.52587
2077 1 25.1926 3.44732 8.57842
2012 1 24.6703 3.6789 9.68547
2387 1 25.6997 3.72636 9.43943
2388 1 26.2113 3.50911 8.71079
2389 1 26.8275 3.25596 9.61521
2394 1 28.1245 3.69238 8.85765
131 1 29.2499 3.58857 8.87308
71 1 1.101 4.72324 9.05655
2464 1 0.181261 5.60985 9.0963
83 1 1.30232 5.42359 9.87773
2396 1 1.88995 4.67023 9.71303
226 1 2.80286 5.27529 9.60464
406 1 2.96355 4.48383 8.69619
135 1 2.96071 5.54574 8.59204
485 1 3.40748 4.38994 9.78078
551 1 4.00176 5.1724 9.26964
530 1 5.43783 4.6447 9.50299
529 1 6.15127 5.20611 9.29611
785 1 7.55847 4.4761 9.59025
532 1 7.91495 4.70359 8.62423
790 1 8.44371 5.453 9.09841
776 1 9.67253 4.2982 8.96458
795 1 8.69168 4.34737 9.47924
789 1 9.40421 5.42653 9.37027
775 1 9.92606 5.1839 8.58189
856 1 10.5518 5.01754 9.47953
1109 1 11.1003 4.51253 8.68848
1129 1 11.5498 4.68443 9.72377
1199 1 12.3296 5.53343 9.88289
788 1 11.5882 5.64624 8.87818
1130 1 12.3084 4.9057 9.20205
1111 1 13.5429 5.43297 9.01256
1112 1 13.717 4.90793 9.78047
1446 1 15.6138 5.38571 9.77454
1445 1 15.3043 4.71036 9.19759
1362 1 16.5098 5.07004 9.05562
1520 1 17.5684 5.31046 9.33506
1836 1 17.1991 4.33299 9.27572
1433 1 18.2323 4.75668 9.89853
1434 1 18.1779 4.34824 9.0174
1845 1 19.9884 5.49958 9.65868
1283 1 19.1058 4.53991 9.22212
1379 1 18.7309 5.66114 9.50155
1763 1 21.1356 5.36741 9.89878
1370 1 20.0286 5.06846 8.72145
1369 1 20.5318 4.46181 9.27905
1939 1 22.4288 4.36279 8.9922
1834 1 22.1345 5.05526 9.77339
1833 1 21.5219 4.79535 9.04099
2145 1 22.6285 5.44987 8.88848
2094 1 23.8711 4.79368 8.70407
1761 1 23.2311 4.7986 9.96373
2146 1 23.4728 5.67439 9.16989
2087 1 24.2815 4.79172 9.67093
2078 1 24.9396 4.32817 8.92979
2001 1 25.557 4.66096 9.81484
2151 1 24.7269 5.40789 8.9499
2329 1 26.822 4.66557 9.45864
2003 1 26.0172 4.61073 8.80679
2330 1 27.8 4.44547 9.522
2467 1 27.5759 5.11853 8.7212
2468 1 28.2558 5.47796 9.26067
86 1 29.3895 5.03606 9.65787
85 1 29.5304 4.89502 8.65402
2404 1 0.834358 6.50307 9.63014
230 1 1.83083 6.97412 9.33536
173 1 1.81451 5.93959 9.12326
225 1 2.60303 6.25667 9.71182
552 1 3.59625 6.03349 9.49215
520 1 4.07064 6.91901 9.14915
632 1 3.37661 7.05554 9.85455
536 1 5.17949 6.6025 8.8957
627 1 5.16057 5.76494 9.65486
954 1 6.16697 7.06834 8.73373
871 1 6.82096 6.22999 9.5316
872 1 5.89006 6.46989 9.65678
538 1 7.77899 6.69705 9.57691
930 1 8.3985 6.42479 8.63419
474 1 7.78133 5.72556 9.92116
559 1 7.44978 5.74954 8.891
554 1 9.1738 6.53508 9.47822
842 1 10.7066 6.2952 8.87191
841 1 10.2941 5.99973 9.73383
1276 1 10.2785 7.05159 9.42189
866 1 11.8398 6.59089 9.2067
865 1 12.6075 6.12049 8.74766
1196 1 13.3512 5.85737 9.98553
1194 1 13.6401 6.46895 8.76497
1530 1 14.1175 7.03298 9.67755
1195 1 13.1464 6.73082 9.58039
1596 1 15.3653 7.04092 9.3615
1120 1 14.5718 5.78244 9.05943
1046 1 16.3534 6.82641 9.40173
1045 1 16.7619 6.10277 8.97559
1830 1 17.8868 6.38666 9.38234
1852 1 18.9123 6.49459 8.94474
1846 1 19.9918 6.49443 9.4831
2084 1 20.9885 5.88286 8.59292
1810 1 21.1517 7.04831 8.84872
1817 1 21.8846 5.99363 9.41665
1818 1 22.6722 5.8602 9.95612
1759 1 22.5524 6.86371 9.40827
1813 1 22.9258 6.50256 8.57498
2132 1 24.0903 7.06063 8.59568
2131 1 23.695 6.70929 9.37553
2182 1 24.5633 6.0442 9.98775
2421 1 25.6712 5.78135 9.92476
2157 1 24.5581 7.13214 9.69868
2416 1 26.665 5.93178 9.86384
2155 1 26.2463 6.56744 9.13024
2085 1 27.045 5.97411 8.6421
2406 1 27.018 6.91845 9.96275
2470 1 28.0617 6.4563 8.74497
2469 1 29.0267 6.26591 8.8381
2494 1 28.7586 6.87724 9.63137
2478 1 29.8705 7.10627 9.51544
2477 1 0.668133 7.33469 9.00917
249 1 0.51787 8.20376 9.5138
250 1 1.32194 7.77103 9.78142
162 1 2.08663 8.30713 8.70107
229 1 2.45749 7.30828 8.66288
234 1 2.30209 8.19648 9.87722
310 1 3.11554 8.00578 9.21553
631 1 3.97149 7.78156 9.9208
620 1 4.10444 7.94167 8.93339
541 1 5.04031 7.45029 9.62652
601 1 5.36912 7.8898 8.68559
542 1 4.79676 8.36567 9.53924
953 1 6.26815 8.05252 8.81859
558 1 6.79131 7.45001 9.47779
557 1 7.08598 8.3313 9.18965
397 1 5.84975 8.52092 9.6241
537 1 7.5103 7.17043 8.76001
959 1 8.04334 8.18783 9.45333
960 1 8.50989 7.34255 9.39241
937 1 9.46033 7.7117 9.25441
882 1 11.0116 7.79177 9.39048
881 1 10.3372 8.15523 8.84989
1033 1 12.2604 7.5911 9.62991
1034 1 12.6169 8.46157 9.67467
1188 1 13.2293 7.67915 8.93841
1516 1 14.1078 8.08421 9.43279
1595 1 15.6375 7.4789 8.61918
1254 1 14.4984 7.41557 8.72297
1586 1 15.2972 8.13199 9.32246
1597 1 16.6012 7.86476 9.55326
1503 1 17.5861 7.60485 9.41426
1909 1 18.4808 7.68424 8.59769
1504 1 17.6198 8.54861 9.40961
1514 1 19.1787 7.29816 9.581
1908 1 18.6537 8.25037 9.66702
1822 1 19.5018 7.97218 8.89256
1821 1 20.3479 7.58054 9.28457
1842 1 21.8908 7.46671 9.9152
2226 1 21.6153 8.31899 8.99837
2239 1 22.8765 7.89669 9.87978
2144 1 23.0468 7.73043 8.82497
2081 1 23.786 8.26488 9.48112
2222 1 24.5714 8.18846 8.688
2158 1 25.3645 7.46741 9.19484
2492 1 26.923 8.18826 8.75685
2405 1 26.4994 7.51724 9.36354
2228 1 25.9228 8.33167 8.71074
2490 1 26.0082 8.56162 9.96793
320 1 27.769 7.4344 9.50157
2485 1 28.7144 7.24217 8.58663
2486 1 28.8131 7.86277 9.28806
2407 1 29.7047 8.07029 8.81476
2480 1 0.264832 8.89106 8.77151
314 1 1.53831 9.85486 9.70104
313 1 1.46765 9.05271 9.20801
233 1 2.4818 9.10967 9.73036
56 1 2.99806 9.09746 8.72065
392 1 4.1808 9.66287 9.74796
5 1 3.05968 9.95124 9.4968
309 1 3.64466 8.70922 9.51477
602 1 5.56608 8.87311 8.64036
630 1 4.32744 8.9341 8.77518
327 1 5.15803 9.4498 9.54686
328 1 6.08588 9.63098 9.71207
561 1 6.5587 9.14449 8.83402
562 1 6.96757 9.2002 9.66635
625 1 7.77824 9.21564 9.01541
925 1 8.68849 9.73009 8.75994
716 1 9.40469 9.9027 9.43647
938 1 9.60186 8.68616 9.41449
893 1 8.64669 9.086 9.6043
934 1 10.342 9.57689 8.81005
1037 1 10.2267 9.27887 9.97327
1003 1 12.5733 9.82326 8.65941
1272 1 11.6283 9.04637 9.06312
1590 1 13.5879 8.97547 9.15112
1515 1 14.4927 8.83952 8.92753
1351 1 14.7801 9.78734 9.48902
1352 1 15.548 9.28085 9.55049
1523 1 16.6721 9.22258 9.81395
1583 1 16.4246 8.85514 8.95622
1578 1 16.525 9.86309 8.66278
1546 1 18.4079 9.57629 9.68307
1674 1 18.3196 9.99064 8.69421
1907 1 18.5296 8.70465 8.80194
1673 1 17.5428 9.55596 9.03035
1602 1 19.5937 8.85742 9.4262
1601 1 19.1622 9.4882 8.84864
1827 1 20.3953 8.653 8.62688
2230 1 21.3096 9.28733 8.97676
1680 1 20.7312 9.78635 9.75776
1679 1 20.2557 9.67799 8.93135
2091 1 21.7906 9.69783 9.82479
1929 1 23.8545 9.60537 9.76514
2082 1 22.9965 8.83598 9.57113
2212 1 23.2872 9.75818 8.95112
2211 1 24.2458 9.48212 8.78116
2000 1 25.6255 9.43304 9.26883
1928 1 26.5958 9.26317 9.57407
2491 1 26.9328 9.09997 8.57987
2320 1 27.5005 9.96239 9.70001
244 1 27.7023 9.99137 8.70326
243 1 27.9045 9.10644 8.90389
2479 1 29.3994 9.08945 8.90108
2418 1 29.1345 8.92402 9.92692
247 1 29.766 9.7111 9.79544
ITEM: TIMESTEP
9000
ITEM: NUMBER OF ATOMS
2532
ITEM: BOX BOUNDS pp pp pp
0.0000000000000000e+00 3.0000000000000000e+01
0.0000000000000000e+00 1.0000000000000000e+01
0.0000000000000000e+00 1.0000000000000000e+01
ITEM: ATOMS id type x y z
4 1 0.920956 0.2429 0.581955
7 1 2.20157 1.08536 1.36107
8 1 1.96332 0.705689 0.490619
403 1 4.20049 1.27516 0.912194
640 1 3.17228 0.495239 0.894141
376 1 4.29265 0.12474 0.817608
461 1 5.32725 0.130897 0.796728
404 1 5.13263 1.26594 0.804713
375 1 4.75573 0.539834 0.0877421
944 1 6.53355 0.177301 0.546187
705 1 6.65056 1.17028 0.91475
706 1 7.41049 0.588236 1.15481
949 1 7.48803 1.38005 0.185131
943 1 7.36774 0.319626 0.0566959
720 1 8.37566 0.858413 0.495818
719 1 9.20901 0.380639 0.413144
1039 1 9.71977 1.21452 0.0113553
1040 1 10.6684 1.3078 0.152929
890 1 10.1557 0.805425 0.996683
1209 1 11.5877 0.223273 0.172211
974 1 12.1223 1.08437 0.464356
662 1 11.6714 0.531578 1.36851
973 1 12.0882 1.39865 1.36273
965 1 13.4331 0.341111 0.593619
1029 1 13.0945 1.25196 0.879213
1289 1 14.1108 0.969232 1.39705
1356 1 14.3765 0.550444 0.21903
1211 1 15.1606 0.0470112 1.07713
1282 1 15.8071 0.944705 0.591157
1543 1 17.1795 1.07749 0.298736
1298 1 17.6942 1.26793 1.25001
1617 1 18.2294 0.695245 0.652348
1544 1 17.3298 0.135003 0.517862
1843 1 19.2481 0.131842 0.146407
1613 1 19.2863 0.424957 1.14334
1614 1 19.3744 1.3405 1.10314
2065 1 20.2731 0.52403 0.70875
2066 1 21.1492 0.060446 0.685784
1675 1 21.0073 1.12348 0.241233
1916 1 22.3268 0.248764 0.704744
1612 1 21.5258 1.24052 1.23739
2009 1 23.2435 1.06201 0.404799
2236 1 23.954 0.549306 1.01166
2235 1 24.5784 1.31382 0.935537
1988 1 25.4645 0.867309 0.714828
1987 1 26.396 0.670564 0.980175
1936 1 26.8386 1.06345 0.13813
2496 1 27.6538 0.697139 0.649448
2495 1 28.2165 0.087288 1.22455
2246 1 29.4209 1.21432 0.5292
2245 1 28.7313 1.38801 1.17267
2265 1 29.1713 0.211125 0.558599
91 1 0.677452 2.08088 0.203827
12 1 2.13241 1.56499 0.0161746
14 1 1.51265 1.6919 1.06149
13 1 1.9455 2.55602 1.03936
477 1 2.52898 2.60166 0.228985
96 1 3.0963 2.51444 1.15772
330 1 4.28556 2.26727 1.14755
95 1 3.01623 1.6308 0.763675
78 1 4.09944 2.03582 0.18992
475 1 5.61278 2.28542 1.07241
466 1 5.09486 2.71118 0.265629
476 1 6.02962 1.92196 0.324387
651 1 6.75267 2.54081 0.796357
718 1 8.3922 2.69388 0.525547
731 1 8.00569 1.65143 1.06639
717 1 9.00554 2.16159 1.06225
733 1 9.68829 2.41101 0.0766313
714 1 8.80169 1.80531 0.0354551
800 1 10.7294 2.71237 0.566941
664 1 10.5827 1.76046 1.19598
969 1 12.5519 2.03461 0.63682
970 1 11.6128 2.089 0.699123
647 1 14.0331 1.9637 0.708412
1281 1 14.9661 1.43631 0.516221
1307 1 16.4236 1.92127 0.176055
1297 1 16.731 1.67253 1.26866
1308 1 15.7959 2.14199 0.877399
1461 1 16.7372 2.64578 0.872427
1387 1 18.5402 1.75157 0.582153
1388 1 17.7213 2.21315 0.784669
1384 1 19.1819 2.607 1.14467
1621 1 20.2336 1.81109 0.629645
1616 1 21.1963 2.48328 0.963709
1703 1 21.6035 1.93275 0.0676201
1704 1 22.2583 1.52837 0.656227
2010 1 23.4776 1.44279 1.22181
1678 1 24.0406 2.34429 0.781885
1934 1 22.9797 2.57725 0.679224
1677 1 24.6691 2.65207 1.37593
2007 1 25.6932 1.96405 0.773718
2023 1 24.8397 2.54431 0.120945
2253 1 26.6679 2.38629 0.324989
2254 1 27.0854 1.7419 0.915388
2248 1 28.0285 2.30889 0.677541
92 1 29.9238 2.65287 0.255721
16 1 29.734 2.04937 1.09815
2244 1 29.0769 2.14596 0.341641
2411 1 0.244093 4.11259 0.0813262
2395 1 1.23603 4.08695 0.110433
2397 1 0.855094 2.98649 0.782189
163 1 2.048 3.43629 0.467741
98 1 2.28779 3.4768 1.42156
415 1 3.13387 3.59927 0.363196
393 1 3.69835 3.37024 1.34097
394 1 4.00185 3.02032 0.445131
329 1 4.71668 3.01666 1.40479
544 1 4.97859 3.66575 0.456172
459 1 5.88878 4.2631 0.553609
417 1 6.01354 3.69308 1.38425
467 1 6.23032 3.32013 0.474768
722 1 7.76249 3.8237 1.35271
797 1 8.40077 4.17101 0.53141
734 1 9.70203 3.01372 0.913534
793 1 8.82163 3.42552 1.05111
859 1 9.54902 4.07696 0.166984
799 1 10.8381 3.65605 0.723116
1057 1 12.2987 3.98508 0.55662
740 1 12.075 3.2064 1.34699
1043 1 13.1929 2.9815 0.797226
1053 1 13.9468 3.59418 1.29111
1062 1 13.0552 4.02084 1.36053
1048 1 13.5244 4.17605 0.423222
1052 1 14.4839 2.91985 0.587162
1065 1 15.1611 4.0065 1.14723
1450 1 15.5747 3.11037 1.01501
1462 1 16.4196 3.24046 0.167882
1776 1 17.0745 3.90972 0.497551
1396 1 18.1561 3.17849 1.04504
1293 1 19.3956 2.93526 0.184696
1708 1 19.5245 3.8151 0.865075
1707 1 20.2984 3.22501 0.878495
1933 1 22.2393 3.04081 0.451279
1762 1 22.8013 4.05269 0.549382
1780 1 21.7067 3.54248 1.27461
2006 1 24.1359 3.35664 0.729943
2024 1 25.5933 2.94088 0.625721
2011 1 25.0174 4.01356 0.550822
2410 1 26.3431 4.07694 0.217528
2346 1 26.5591 3.28713 0.935405
2018 1 26.0311 4.2525 1.20956
2313 1 27.4623 3.20775 0.538457
2409 1 27.261 4.26686 0.480948
2314 1 28.1039 3.58146 0.0623796
2345 1 27.2344 3.69913 1.42654
2318 1 29.2125 4.15804 0.122081
2317 1 29.0215 3.59102 0.834876
2398 1 29.9609 3.08196 1.12394
2331 1 29.9618 4.11784 1.24296
2412 1 0.459472 5.02119 0.213377
88 1 1.168 5.00484 1.06344
164 1 2.38923 4.32138 0.70007
84 1 2.05741 5.4482 0.375957
156 1 3.18929 5.44886 0.549161
155 1 3.41967 4.53338 0.829917
481 1 4.27829 5.46443 0.494057
401 1 5.19831 4.76291 1.38316
628 1 5.46433 5.34849 0.422871
486 1 4.32882 4.36343 0.0722679
721 1 7.05217 4.36766 1.05294
549 1 6.52656 5.31456 1.32039
550 1 6.79408 5.44495 0.429602
460 1 6.69655 4.37391 0.122987
473 1 7.85376 5.06172 0.614133
867 1 8.81944 5.63849 1.21908
796 1 8.83958 5.00849 0.181382
802 1 11.2725 5.64564 0.153316
1186 1 10.6486 5.45414 0.996234
860 1 10.0821 4.80955 0.435317
1200 1 12.77 4.8561 0.349646
1221 1 11.7622 5.11488 0.877931
1114 1 13.7508 5.19446 1.0491
992 1 14.8625 5.05871 0.84774
1438 1 14.5751 4.36308 0.175927
1372 1 16.7503 4.93379 0.202173
991 1 15.8391 4.84353 0.835822
1452 1 16.9453 5.47905 1.1489
1451 1 17.0021 4.50104 1.24466
1519 1 17.5252 5.53356 0.212147
1775 1 17.8977 4.34025 0.840225
1380 1 18.9808 5.45761 0.407008
1698 1 19.8677 4.94739 1.10478
1697 1 20.1973 4.58379 0.330042
1691 1 21.1922 4.3663 1.01585
1692 1 20.906 5.25461 0.961244
2013 1 22.2359 4.60997 1.3061
1767 1 22.4351 5.65108 1.05522
2005 1 23.9314 4.31817 0.622741
2106 1 23.1736 4.99488 1.09733
2104 1 24.1639 4.9951 1.32555
2017 1 25.2275 4.74929 1.32493
2002 1 24.9453 5.19778 0.390779
2422 1 26.0243 5.28155 0.583811
2328 1 28.2547 4.37581 1.17544
2460 1 27.3432 4.76796 1.30669
2392 1 27.6387 5.43861 0.011453
2391 1 28.45 5.18617 0.395345
2332 1 29.6522 4.98197 0.880198
87 1 0.734329 5.82368 1.29223
2403 1 0.294975 6.25072 0.377124
152 1 0.727491 7.1043 0.463328
171 1 1.45994 6.31658 0.580538
175 1 2.46323 5.9852 1.14627
172 1 2.10658 6.90453 0.361562
176 1 3.11285 6.58293 0.666847
482 1 4.3155 6.41751 0.423368
487 1 5.39241 6.8319 0.647182
488 1 5.92981 6.14124 0.956042
563 1 6.75259 6.92434 0.464517
810 1 7.62667 6.48302 0.684725
868 1 8.62172 6.25429 0.482759
863 1 9.57652 5.82942 0.420707
806 1 9.23407 6.89259 1.25132
553 1 9.39222 6.92866 0.272496
864 1 10.2844 6.41686 0.698458
1123 1 10.9808 6.94884 1.16606
955 1 11.2903 6.81208 0.0582548
801 1 11.4613 6.15238 0.997838
956 1 12.2423 6.51864 0.272697
1143 1 13.0816 6.51451 1.1971
1529 1 13.9897 6.93647 0.589073
1113 1 14.1884 6.00367 1.25306
1119 1 14.6376 5.8831 0.0121211
1443 1 15.5128 5.93959 0.794556
1218 1 15.182 6.74932 0.380686
1131 1 14.9245 7.02713 1.33979
1444 1 16.3241 6.46541 0.813372
1371 1 16.5923 5.86896 0.00124241
1442 1 17.3896 6.58232 1.17378
1441 1 18.2333 6.18842 0.775018
1829 1 17.4826 6.76026 0.143723
1777 1 19.7256 6.00229 1.09235
1837 1 19.8659 7.07524 0.451058
1513 1 19.0895 6.46651 0.0283555
1840 1 21.2978 6.03299 1.39866
1839 1 21.2274 6.99659 1.14329
1764 1 20.5162 5.98595 0.39128
1841 1 21.6328 6.61761 0.280728
2105 1 23.4857 5.75111 0.45732
1849 1 23.0952 6.76323 0.870987
2096 1 24.2406 6.13289 1.24361
2181 1 25.0991 6.56426 0.720463
2415 1 27.0737 6.21827 0.676198
2185 1 25.9499 7.11742 0.195422
2186 1 26.1096 6.6477 1.00286
2401 1 28.0156 5.77239 1.30759
2423 1 27.6914 7.02373 0.759855
2493 1 28.1381 6.33246 0.0480876
177 1 28.746 6.61519 0.795408
2473 1 29.4165 5.96864 0.922978
2474 1 29.0977 6.04195 0.0190217
178 1 29.5733 7.01169 0.530682
151 1 1.23231 7.42227 1.2124
2504 1 0.708497 8.15765 0.501593
242 1 1.40601 8.4348 1.16918
246 1 2.21031 7.87342 0.822078
634 1 3.12287 8.44044 0.40536
633 1 3.25422 7.56071 0.898494
257 1 4.44949 7.32871 0.803938
258 1 4.28661 8.05211 1.42412
638 1 5.22064 8.25499 0.513505
398 1 6.03733 7.68084 0.0778177
381 1 6.92645 8.30025 0.176676
564 1 6.61207 7.7201 0.914113
958 1 8.37371 7.2508 0.78813
957 1 7.63955 7.54835 0.148706
657 1 7.81256 8.14066 0.929425
809 1 7.44798 7.24486 1.26196
902 1 9.38805 7.83668 1.09944
894 1 8.90141 8.20901 0.0631655
952 1 10.5179 7.99536 1.23091
1275 1 10.2358 7.80453 0.0537021
1280 1 11.5628 7.71177 0.639793
1279 1 11.5348 8.55893 1.07525
1354 1 13.0256 7.87271 0.737393
1353 1 13.9241 8.23598 0.846515
1217 1 14.8452 7.63317 0.442797
1232 1 14.8636 8.28901 1.33527
1521 1 15.8638 7.5493 1.09577
1598 1 16.7064 7.32776 0.348993
1525 1 16.5638 8.30301 1.06701
1585 1 15.8058 8.04536 0.0344021
1447 1 18.3925 7.37538 0.280266
1448 1 18.1286 7.28777 1.23779
1599 1 18.4719 8.18904 1.34457
1528 1 17.8709 8.25039 0.429111
1600 1 19.1828 8.03571 0.740358
1913 1 20.4451 7.81617 1.14471
1917 1 20.1017 8.20269 0.224061
1838 1 20.7879 7.21415 0.127751
1766 1 21.5587 8.23849 1.09642
1765 1 21.9981 8.43971 0.238578
1850 1 22.9289 7.5513 1.33369
2240 1 23.686 7.52515 0.127256
2159 1 23.6339 8.46204 0.645688
2160 1 24.3421 7.85739 0.870421
2163 1 25.1365 8.06327 0.164002
2315 1 25.8121 7.7836 1.23027
2489 1 26.4783 8.0104 0.590036
2424 1 26.9055 7.28067 1.25758
272 1 27.5958 8.01165 1.03278
267 1 28.394 8.00353 0.214618
319 1 27.2827 8.16594 0.00125054
268 1 28.9945 7.81163 1.03401
2503 1 29.9907 8.10141 1.07359
2417 1 29.55 8.11902 0.159967
240 1 0.0295444 9.88971 1.18265
241 1 0.616462 8.99122 1.05901
248 1 0.59796 9.32714 0.0350132
9 1 2.67531 9.62894 0.502343
245 1 2.29249 8.76394 1.08687
322 1 1.57374 9.50562 0.816347
321 1 1.50656 8.79799 0.215471
10 1 3.23611 9.27855 1.1725
462 1 5.6352 9.23487 0.999502
391 1 4.51619 9.09359 0.360495
573 1 4.35816 9.34205 1.36362
382 1 6.6099 9.09707 0.630609
891 1 7.52048 9.21592 1.06777
658 1 8.38166 8.7878 1.41346
650 1 8.5148 9.63279 0.721287
892 1 7.91869 8.89455 0.220921
649 1 9.22012 9.05264 0.435687
883 1 9.83617 9.77632 1.08981
1210 1 10.9838 9.74091 0.724635
951 1 10.4061 8.88465 0.985688
1203 1 12.8538 8.8191 0.881911
1259 1 12.2477 9.73712 1.0435
1260 1 12.2289 9.42505 0.154397
1271 1 11.435 8.6245 0.00744192
1204 1 13.6089 9.24403 1.33534
1589 1 13.7218 9.25543 0.056152
1347 1 15.3951 9.11101 0.659643
1348 1 14.6712 8.67398 0.188742
1212 1 14.489 9.48554 0.767329
1524 1 16.2902 9.94762 0.353018
1291 1 16.9809 9.61236 1.39138
1527 1 17.628 9.12672 0.184609
1844 1 19.8364 9.46251 0.415508
1545 1 18.7899 9.03922 0.378214
1847 1 19.063 9.44691 1.32229
1918 1 20.8534 8.85554 0.303456
1914 1 20.1014 8.71442 1.07694
2234 1 21.8457 9.29857 1.14887
2233 1 22.6515 9.29973 0.484588
1857 1 22.8493 9.83743 1.3818
1930 1 23.7293 9.44366 0.734098
1942 1 24.9717 9.78643 0.0428837
2164 1 24.5442 8.8288 0.279486
2316 1 25.6192 8.72709 1.06754
2319 1 26.9049 9.95814 0.418349
1927 1 26.7424 9.01372 0.575812
1941 1 25.7296 9.71866 0.666153
271 1 27.9561 8.92926 0.788357
2266 1 28.3567 9.91983 0.162935
239 1 29.7057 9.11098 0.833549
256 1 0.677253 0.461589 1.71929
119 1 0.692168 1.33647 2.10438
120 1 1.65467 1.08911 2.29835
19 1 1.63719 0.152515 1.70742
574 1 3.86666 0.120996 1.75447
266 1 3.00238 0.517262 2.35276
399 1 5.07251 0.022669 1.83753
412 1 5.63534 1.03903 2.45162
346 1 4.78366 1.05167 1.83743
400 1 6.00268 0.327812 1.55452
337 1 6.83307 0.927904 2.13348
578 1 6.29756 0.240786 2.61889
646 1 8.37814 0.75802 1.56093
568 1 7.72893 0.417418 2.39268
900 1 8.89918 0.372347 2.55972
741 1 9.74651 0.510295 2.12365
645 1 9.09497 1.37398 1.74889
661 1 11.2296 1.22146 1.84352
889 1 10.6861 0.264101 1.55697
655 1 10.625 0.595053 2.59204
987 1 11.5627 0.356806 2.31974
976 1 12.5403 0.763322 2.00593
967 1 13.9598 0.247218 2.31956
1288 1 14.9345 0.5788 1.92107
1287 1 15.7351 1.1157 1.69485
1555 1 16.5995 0.979613 2.32306
1565 1 16.9095 0.0372189 2.42815
1292 1 16.2858 0.184809 1.56467
1566 1 17.5123 0.33297 1.77033
1607 1 19.5012 0.925596 2.16397
1608 1 18.5772 1.19676 1.90442
1626 1 20.119 0.201607 1.65022
1611 1 21.1537 0.922463 2.03528
1622 1 20.3866 1.33507 1.45476
1882 1 20.3518 0.378226 2.76164
1858 1 22.2531 0.425215 1.83858
2172 1 23.2403 0.672362 2.01603
2171 1 23.9396 0.0579653 2.20041
2184 1 23.0404 0.0351176 2.84339
2161 1 24.5508 0.733382 1.80603
2019 1 25.6206 0.227609 1.82656
2020 1 25.3172 0.642289 2.60776
2261 1 26.7391 1.30296 1.82568
2262 1 25.8376 1.19987 1.64496
2271 1 26.9818 0.0946763 2.40039
2272 1 26.1069 0.00578153 2.82375
2333 1 26.4495 0.912318 2.76389
2349 1 27.7528 1.34077 1.5074
2350 1 27.8727 0.80727 2.32609
255 1 29.9035 0.960874 1.52553
288 1 29.1274 0.844677 2.32311
28 1 0.717588 2.27759 1.59888
2260 1 2.74564 1.93367 1.98938
37 1 1.76176 2.1494 2.29709
2259 1 3.58354 1.5885 1.77422
413 1 3.68093 2.52019 2.06969
345 1 5.00283 1.9164 1.80809
411 1 6.01027 1.45514 1.66718
333 1 5.82902 2.57737 2.00075
334 1 6.44261 2.53202 2.68659
652 1 6.93062 2.03835 1.56746
732 1 8.01064 2.50908 1.45081
816 1 7.66289 1.65409 2.32157
815 1 7.5589 2.59965 2.39591
659 1 8.58125 2.70551 2.38286
730 1 9.51525 2.42577 2.63524
779 1 11.3221 2.419 1.68097
729 1 10.1209 2.76779 1.94872
780 1 10.9219 2.05719 2.49991
663 1 10.0718 1.66018 2.01603
739 1 12.4728 2.34683 1.62054
908 1 12.1759 1.74911 2.56733
977 1 11.8135 2.72477 2.60306
648 1 13.7111 2.29062 1.52735
989 1 13.2781 1.77129 2.38104
990 1 14.1743 1.68065 2.75643
1067 1 12.8709 2.66054 2.78263
1050 1 13.8427 2.68953 2.44284
1290 1 14.5906 1.7843 1.5937
972 1 15.1944 1.62897 2.49826
971 1 15.3918 2.5082 2.57939
1299 1 16.2431 2.01048 2.34205
1455 1 16.9414 2.82396 1.92889
1300 1 16.9211 2.4542 2.8246
1556 1 17.3008 1.72161 2.07675
1395 1 18.0818 2.53174 1.77518
1306 1 19.0214 2.03697 2.43005
1632 1 20.0757 1.82315 2.42539
1706 1 21.0513 1.81753 2.84037
1615 1 21.0578 2.18941 1.85152
1303 1 20.2141 2.5058 1.67868
1374 1 22.0381 1.51264 2.46035
1937 1 21.911 2.54602 2.34397
1938 1 22.4181 2.29866 1.5826
1373 1 22.9686 1.63101 2.16871
1629 1 23.4684 2.68971 1.59086
2162 1 24.7661 1.59725 2.08677
1932 1 25.2709 2.48321 2.22109
2015 1 26.2268 2.28299 1.60217
2353 1 26.2023 2.69551 2.62842
2339 1 25.7223 1.73987 2.70988
2016 1 27.1617 2.5193 1.65541
2247 1 28.1531 2.25534 1.67335
2288 1 27.3352 1.83324 2.49099
15 1 29.3841 1.82485 1.96144
2342 1 28.7734 2.69768 2.38978
2341 1 29.0334 2.68766 1.43578
27 1 1.26458 3.02054 1.77535
2432 1 0.346303 4.12203 2.47035
105 1 2.84941 3.24395 2.57503
106 1 2.03378 3.7604 2.64857
97 1 2.97645 4.08098 1.79364
498 1 4.171 3.52458 2.35111
484 1 5.20619 2.86145 2.81131
402 1 5.06841 3.92903 1.806
332 1 5.93869 3.98861 2.85146
418 1 6.69889 3.06652 1.68748
746 1 7.9619 3.45496 2.55044
794 1 9.28042 4.225 1.48268
817 1 8.64201 4.22649 2.80364
660 1 9.29424 3.32744 2.09257
818 1 9.58916 4.25091 2.79504
723 1 10.265 3.76289 2.01794
744 1 10.8908 3.20365 2.57357
725 1 11.3248 3.9834 2.15775
1073 1 12.752 4.2517 2.31106
1049 1 13.997 3.62885 2.53958
1061 1 13.1484 3.21169 1.89971
1054 1 14.6928 3.15454 1.57124
1066 1 15.3353 3.76297 2.06027
1449 1 16.2564 3.55336 1.5012
1375 1 16.2844 3.35666 2.49327
1456 1 17.3345 3.58702 1.54803
1479 1 17.1495 4.16996 2.38489
1399 1 17.9895 3.3812 2.47115
1383 1 19.435 3.16106 1.88119
1459 1 19.4733 4.20347 1.81126
1386 1 19.3994 3.69558 2.83065
1460 1 20.3308 3.97027 1.52364
1304 1 20.5603 3.16225 2.3327
1874 1 22.8043 2.9543 2.74289
1779 1 21.4379 4.06005 2.03875
2034 1 22.8496 3.66407 1.87192
2033 1 22.27 3.84456 2.63007
2098 1 23.8046 3.89063 1.62581
2097 1 23.5822 3.99502 2.54389
1630 1 24.0717 2.94223 2.34681
2021 1 25.5479 3.37393 1.64312
2099 1 24.6989 4.07895 2.01378
2022 1 26.0024 3.94746 2.27196
2336 1 26.9573 3.7785 2.45862
2326 1 28.2827 3.47483 1.59406
2051 1 27.6727 2.96327 2.36274
2325 1 28.2211 3.77369 2.47859
2430 1 29.697 3.25702 2.10432
2429 1 29.1744 4.09648 2.10334
100 1 1.01454 4.86332 2.0894
99 1 0.113052 5.0553 1.86463
165 1 2.2466 4.78766 2.4951
166 1 2.3899 5.09652 1.56432
479 1 3.90828 4.71476 2.75052
507 1 4.12703 4.84461 1.75161
110 1 3.11004 5.41978 2.46289
508 1 4.67971 5.4351 2.25399
422 1 4.83027 4.40318 2.65644
635 1 5.72844 5.38206 2.06831
430 1 6.77553 5.19087 2.3445
636 1 6.02243 4.50836 1.94152
727 1 7.55284 5.34428 1.49929
429 1 7.42656 4.43208 2.22026
728 1 8.37703 4.81638 1.52534
807 1 9.85269 5.06984 1.83127
1136 1 9.13565 5.32158 2.65353
724 1 10.5835 4.45956 1.44588
1185 1 11.1888 5.52715 1.79282
808 1 10.5064 4.78393 2.46627
726 1 11.6572 4.69085 2.59616
1222 1 12.1575 5.13042 1.74404
1197 1 14.025 4.7874 2.65834
1198 1 14.246 4.63925 1.75521
1138 1 12.9105 5.64396 2.71171
1465 1 15.0679 5.27637 1.97055
1471 1 15.9532 5.61809 1.59313
1472 1 16.6357 5.29849 2.20852
1457 1 15.7871 4.85088 2.57642
1533 1 17.866 5.27138 1.52911
1534 1 17.5691 5.09564 2.32576
1470 1 18.5001 5.69335 2.63615
1469 1 19.1203 5.41572 1.9758
1728 1 18.6048 4.50501 2.16625
1711 1 21.1975 4.96777 1.85798
1393 1 20.342 4.72435 2.37239
2014 1 22.8032 4.65904 2.05994
1712 1 21.9892 5.39169 2.16842
2103 1 23.8653 4.99458 2.27503
2110 1 24.9876 5.07327 2.33363
2459 1 27.0628 5.25144 2.03398
2090 1 26.1105 5.709 1.55764
2109 1 25.9459 5.02483 2.48528
2327 1 28.1572 4.78877 2.00624
2402 1 28.8418 5.66518 1.87847
186 1 29.4131 4.84944 2.75852
170 1 0.446583 6.84106 1.47358
2425 1 1.28372 5.88089 2.19853
169 1 0.326898 6.26262 2.23364
2426 1 1.64397 6.53594 1.58181
168 1 2.60714 7.1259 1.6313
263 1 2.1878 6.31648 2.63398
182 1 3.71578 6.8594 1.48345
109 1 2.99161 6.24867 1.96109
181 1 3.98088 5.96206 1.42941
492 1 4.17378 6.50762 2.38708
493 1 5.24641 6.25839 1.73349
494 1 5.17461 6.33738 2.70673
491 1 4.73891 7.12248 1.86754
495 1 6.19721 6.97515 2.63476
496 1 6.43717 6.05525 2.59827
813 1 6.89829 6.3666 1.44735
874 1 8.39054 5.79926 2.14503
814 1 7.48333 6.27319 2.20146
873 1 8.23282 6.68705 1.70406
805 1 9.24085 6.24018 1.97349
862 1 10.3237 6.39933 1.81759
1278 1 11.3185 6.39729 2.14444
861 1 10.2617 6.85383 2.69897
1128 1 12.4379 6.67 2.09479
823 1 11.908 5.91785 2.80719
1144 1 13.2868 5.71637 1.76899
1127 1 13.3941 6.63581 2.33062
1466 1 15.1652 6.2372 1.98734
1215 1 14.391 6.96314 2.62316
1147 1 14.3143 5.82038 2.5954
1141 1 16.0543 6.634 2.12793
1482 1 17.1252 6.18944 2.39312
1772 1 17.4777 7.12908 2.12794
1771 1 18.0694 6.40388 1.8816
1484 1 19.0772 6.54137 1.83565
1770 1 19.7224 6.1308 2.54199
1483 1 18.9217 6.75472 2.76041
1769 1 20.5284 6.65829 2.58744
1778 1 20.3774 5.72443 1.76053
2032 1 22.7151 6.52741 2.44007
1784 1 22.1928 6.67988 1.49354
1783 1 21.6075 6.6957 2.27517
1768 1 23.1426 5.78944 1.74697
2166 1 23.5055 7.11531 2.57695
2165 1 23.9255 7.12452 1.70688
2089 1 25.4939 5.99094 2.26536
2095 1 24.3413 6.14958 2.27711
2420 1 26.2755 6.79771 2.01422
2419 1 27.1251 6.32647 1.82359
188 1 28.3696 6.79513 2.0898
2500 1 27.5612 6.85597 2.78665
2357 1 27.7765 5.84888 2.47712
187 1 29.2245 6.9144 1.66164
208 1 29.3967 5.94375 2.77057
251 1 1.24076 7.43993 2.3262
253 1 0.378139 7.91904 2.78569
259 1 0.570161 8.38162 1.85186
252 1 1.95289 7.86296 1.83792
264 1 2.36488 7.2151 2.64764
167 1 2.95115 7.90955 2.04849
576 1 3.92597 7.63919 2.51216
637 1 5.28549 8.37906 1.55244
489 1 5.69579 7.43778 1.64513
570 1 4.95615 7.66556 2.7745
579 1 6.51172 8.48369 1.48746
580 1 6.91231 7.76988 1.96818
490 1 5.85718 8.02979 2.40018
555 1 8.27314 7.77289 1.7933
820 1 7.62915 7.41368 2.63052
501 1 8.1862 8.20312 2.84542
556 1 8.83201 7.24844 2.44809
880 1 9.73747 7.42849 2.08314
879 1 10.4288 7.9394 2.46058
1124 1 11.2164 7.50741 1.84673
887 1 11.0765 8.50765 2.05441
1202 1 12.185 7.80566 1.67035
1270 1 11.6933 8.00918 2.73772
1151 1 12.7982 8.49689 2.8424
1201 1 13.1228 7.6529 1.85002
1132 1 14.0873 7.41846 1.6066
1126 1 13.9283 8.52296 1.96761
1231 1 14.9842 8.11867 2.28485
1522 1 16.7073 7.25532 1.45197
1360 1 15.9577 7.77347 2.10476
1453 1 16.923 7.91492 2.68
1526 1 17.3924 7.94568 1.49936
1551 1 18.0066 8.39738 2.63522
1532 1 19.8359 7.51811 2.07604
1552 1 18.6044 7.62826 2.33352
1531 1 20.1171 8.39118 2.36172
1854 1 20.9117 7.50701 2.05317
2173 1 21.9888 7.97659 2.10922
2174 1 22.8525 8.12144 2.37399
2170 1 24.1051 8.06693 1.95522
2101 1 25.0497 7.21269 2.81966
2501 1 25.1491 7.2044 1.79242
2502 1 25.0839 8.18134 1.93722
2258 1 26.8993 8.33211 1.88717
2257 1 26.0827 8.00574 2.26868
2510 1 27.7125 7.66906 2.10595
2434 1 27.1453 8.07831 2.84633
254 1 29.9074 7.53968 2.04297
2509 1 28.672 7.86672 2.15584
2356 1 29.0573 7.159 2.79276
22 1 0.889125 9.72847 2.77431
20 1 1.21892 9.37155 1.88158
23 1 2.19759 8.84178 2.02883
265 1 2.59591 9.67443 2.14285
17 1 3.47607 8.83561 2.1617
18 1 3.86009 9.55748 2.61581
572 1 4.61214 8.78957 2.31441
336 1 6.00056 9.36718 2.03357
335 1 6.89853 9.74227 1.8886
326 1 6.74398 8.59875 2.51583
325 1 7.58239 8.68803 2.04683
567 1 8.03049 9.59367 1.96264
884 1 8.98173 9.92013 1.60896
901 1 9.51867 8.70979 1.43334
896 1 9.02418 9.34042 2.54017
888 1 11.308 9.44369 1.73737
885 1 10.2244 9.36276 2.21421
1540 1 11.9799 9.42957 2.46984
1539 1 12.3335 8.86648 1.75207
975 1 12.9954 9.94829 1.86467
1125 1 13.5584 9.2823 2.38484
1318 1 15.0582 9.99504 2.70882
1538 1 14.6154 9.3782 1.89631
1537 1 14.4701 8.97607 2.76528
1359 1 15.7829 8.62181 1.67413
1865 1 17.0765 8.92393 2.29179
1569 1 15.9146 9.40228 2.35867
1866 1 17.8563 9.05658 1.732
1870 1 18.4344 9.85621 2.31479
1869 1 19.4123 9.70788 2.41756
1848 1 19.0217 8.82361 2.006
2179 1 21.1588 8.73298 1.86504
1625 1 20.2011 9.27395 1.91609
1919 1 20.6923 9.23347 2.83298
1920 1 21.2285 9.78858 2.29331
2180 1 21.5184 8.75338 2.73634
2167 1 22.7612 8.66472 1.46355
2168 1 22.2828 9.22441 2.09101
1862 1 22.0909 9.94726 2.83793
2188 1 23.6291 9.16804 1.72444
2178 1 24.0204 8.90311 2.74447
2187 1 24.5596 9.1959 1.57283
1925 1 25.0101 9.44621 2.55262
2263 1 26.5295 9.68558 1.47876
2264 1 25.827 9.25174 2.01905
2506 1 27.0387 9.0279 2.56608
2507 1 27.958 8.71414 2.06484
2508 1 27.465 9.45102 1.65312
289 1 28.2338 9.84596 2.22876
21 1 29.9227 9.85027 2.69796
287 1 29.2403 9.98164 1.86735
260 1 29.97 9.09747 1.91434
2251 1 29.0019 9.02067 2.35863
2252 1 28.9021 8.8266 1.46461
303 1 0.982075 0.267716 3.89476
121 1 1.39836 1.31747 3.90132
304 1 0.637936 0.827289 3.14827
31 1 2.17444 0.253705 3.03805
32 1 2.37037 1.1942 3.05785
342 1 2.53095 0.494387 4.1227
93 1 4.22049 1.19906 3.72889
341 1 3.18369 0.576819 3.42698
29 1 4.56607 0.471837 2.9748
354 1 5.45647 0.951741 3.55825
262 1 4.58357 0.00552742 3.98198
338 1 6.72042 1.34562 3.01311
370 1 6.44763 0.553412 3.50865
369 1 7.08764 1.016 4.06129
339 1 8.57065 1.3073 3.12931
899 1 8.24794 0.0582056 3.13305
616 1 7.88144 0.158308 4.10208
340 1 8.36708 1.28609 4.10378
710 1 9.29625 0.680875 3.7547
742 1 9.81094 0.0220234 2.9461
709 1 9.69575 1.14982 2.9777
656 1 10.4432 0.663857 3.50723
988 1 12.2119 0.459851 2.9655
907 1 11.4349 1.28002 2.93305
904 1 11.4872 0.431324 3.62771
994 1 12.4449 1.33266 3.55019
1205 1 12.5138 0.336653 4.15758
993 1 11.5778 1.34975 4.10603
1536 1 13.3716 0.966904 4.07251
1535 1 13.4347 0.880112 3.14662
968 1 14.4944 0.705743 2.98996
1249 1 15.3573 0.979217 3.5459
1317 1 15.9798 0.261372 2.90557
1000 1 15.8911 0.117684 3.999
1007 1 16.6247 0.967756 3.75746
1313 1 17.6279 0.588973 3.06574
1314 1 18.5465 0.763226 2.87396
1391 1 17.9145 1.09222 4.03455
1562 1 17.4784 0.0406788 4.13092
1310 1 19.902 1.1414 3.45453
1309 1 19.307 0.371735 3.4915
1640 1 19.0915 1.10964 4.21261
1633 1 20.5636 0.238201 3.78036
1718 1 20.8691 1.23693 3.84488
1881 1 21.227 0.68935 3.04392
1877 1 22.6087 0.887485 3.24878
1878 1 21.9145 0.878976 3.94986
2183 1 23.7154 0.508491 3.3245
1956 1 23.859 0.870709 4.27252
2176 1 24.4966 1.25196 3.14684
1960 1 25.4296 0.348306 3.67243
1959 1 24.7329 0.082302 4.20202
2334 1 26.0956 1.07347 3.6724
2273 1 26.6513 0.178336 3.99215
2498 1 27.5677 0.54066 3.32264
2497 1 28.5421 0.78535 3.36822
2267 1 29.667 0.644382 3.41086
2344 1 0.812608 1.97285 3.09244
2343 1 0.802963 2.44141 3.92188
41 1 0.0770663 1.4644 3.91592
445 1 2.46745 1.56167 4.14906
38 1 1.81348 2.33776 3.2481
446 1 2.56844 2.51535 4.25996
102 1 2.85853 2.26163 3.28512
101 1 3.46069 1.61242 3.0875
435 1 3.80589 2.14504 4.05156
414 1 3.91445 2.74345 3.0102
94 1 4.58724 1.51713 2.86877
353 1 5.68254 1.83871 3.2925
409 1 4.79207 2.27673 3.63804
350 1 5.66798 2.57176 4.24806
427 1 6.69732 2.11394 3.99063
344 1 7.64589 1.75163 3.44892
666 1 8.59032 2.28255 3.83686
644 1 9.42084 2.82438 3.91779
351 1 9.70089 1.65748 3.9103
743 1 10.3348 2.80707 3.21036
352 1 10.5859 1.84289 3.56893
978 1 11.5701 2.37816 3.502
1002 1 14.054 2.02039 4.08181
1001 1 13.2497 2.04449 3.56273
985 1 15.0137 2.09739 3.43995
1250 1 14.8678 1.46682 4.27677
986 1 15.9773 2.01975 3.35648
1407 1 17.0613 2.64102 3.93708
1008 1 16.0184 1.58304 4.19183
997 1 15.8681 2.79985 4.27377
979 1 17.3022 1.5653 3.17985
1408 1 17.1717 1.79258 4.25905
980 1 18.0747 2.11452 2.93001
1389 1 18.1682 2.35453 4.01468
1305 1 19.0202 1.97337 3.40695
1631 1 20.0646 2.26931 3.33513
1709 1 21.1243 2.71904 3.77061
1671 1 22.8008 2.22849 3.78829
1705 1 21.745 1.90777 3.5731
1672 1 23.3167 1.70623 3.13759
1620 1 23.7867 2.29969 3.9778
2175 1 24.3046 2.21515 3.03967
1619 1 24.7194 1.98599 3.92094
2340 1 25.5282 2.38062 3.44628
2361 1 26.8551 1.71977 3.65588
2287 1 27.8951 1.68817 3.26581
2052 1 27.2625 2.5408 3.14952
2278 1 28.8877 1.74041 4.00143
2268 1 29.8633 1.56689 2.95058
2277 1 28.8877 1.95101 3.0522
2519 1 29.7481 2.55216 2.90742
2520 1 29.6645 2.50416 3.89699
195 1 0.609521 3.08354 2.99592
2359 1 0.144249 3.6598 4.11311
196 1 0.936549 3.91698 3.42933
25 1 1.58085 3.13187 4.22325
26 1 2.04726 3.71506 3.59038
480 1 3.0263 4.23907 2.94106
497 1 4.03378 3.70744 3.29499
436 1 3.90134 3.11247 4.21511
434 1 3.3724 4.09416 4.06708
433 1 3.00177 3.32219 3.70408
410 1 4.90733 3.18389 3.85235
408 1 5.2887 4.21729 3.67209
407 1 4.48605 4.16241 4.23561
483 1 5.89859 3.10573 3.41717
425 1 6.8301 3.51588 2.92365
347 1 6.57342 4.16656 4.21337
426 1 6.82009 3.15488 3.81891
424 1 7.53087 4.15751 3.22809
745 1 7.9283 3.08949 3.4601
755 1 8.38953 4.15198 3.8173
756 1 7.72132 3.71127 4.26807
643 1 8.91007 3.31918 3.20176
747 1 9.93826 3.80888 3.70418
736 1 11.3891 3.49682 3.63202
1068 1 12.5829 2.91578 3.61036
1074 1 12.1337 3.83667 2.94627
1122 1 13.8863 4.16188 3.60326
1121 1 13.1718 3.76393 3.14961
984 1 13.7674 2.9789 3.74171
1076 1 13.0994 3.78951 4.2052
1077 1 15.2833 3.37636 3.02839
1078 1 14.7141 3.08836 3.75623
1382 1 15.4748 3.85128 4.00584
1376 1 16.2539 3.0622 3.38669
1085 1 16.4451 4.11602 3.72158
1086 1 17.1906 3.61733 3.38748
1419 1 18.2702 4.15423 4.25318
1400 1 18.6253 2.9678 2.94828
1390 1 18.8753 3.10214 4.05272
1385 1 19.5026 4.10481 3.7385
1312 1 20.0735 3.21411 3.85282
1710 1 21.2914 3.32445 3.05595
1798 1 21.0881 4.11737 3.78375
1394 1 20.3649 4.03557 3.05435
1873 1 22.1202 2.89108 3.40875
1797 1 22.0374 3.88569 3.77451
1943 1 23.7608 3.13913 3.32392
1944 1 23.0422 3.78684 3.39956
1628 1 24.251 3.72456 3.98736
1931 1 25.0303 3.1092 2.93025
2100 1 24.7165 4.1756 3.02079
2039 1 25.3647 3.86091 4.12023
2354 1 26.1078 3.20516 3.47184
2124 1 26.562 3.81513 4.23154
2364 1 27.5523 3.41281 3.77695
2363 1 28.2691 3.11874 3.19162
2431 1 29.5577 3.83713 3.02453
199 1 28.703 3.34422 4.0109
185 1 0.288111 5.2921 2.88239
2370 1 0.140908 4.63417 3.81497
103 1 1.4138 4.7646 3.09331
104 1 1.48983 5.70386 3.29721
180 1 2.84313 5.18498 3.39642
111 1 2.31242 4.49933 4.16827
112 1 1.79154 5.28571 4.21917
179 1 3.5824 4.98421 4.00556
421 1 5.37371 5.04855 2.98398
420 1 4.59853 5.63948 3.32448
331 1 6.36658 4.75173 3.23413
442 1 5.9071 5.02074 4.23203
825 1 7.71301 5.35906 2.87517
423 1 7.53266 4.8734 3.90383
826 1 8.27892 5.53156 3.69033
1157 1 9.99894 5.1567 3.30995
1158 1 9.22797 4.65547 3.62565
735 1 10.9396 4.36615 3.43922
758 1 10.699 5.49567 3.99134
1055 1 12.1508 4.37606 3.84826
912 1 12.3642 5.48319 4.10411
911 1 11.6893 5.23774 3.55976
1056 1 12.8755 4.70544 3.28542
1060 1 14.2431 5.12548 3.6747
1458 1 14.9353 4.42546 2.94205
1225 1 15.1709 5.59121 3.23353
1071 1 15.1868 5.04925 4.2463
1480 1 17.4885 4.6427 3.18154
1727 1 18.7319 4.54607 3.10607
1473 1 19.907 5.06581 3.25192
1716 1 19.0122 4.95044 4.14904
1782 1 21.18 4.90029 2.90096
1789 1 20.7941 5.28798 4.04551
2028 1 22.7491 4.99715 3.12059
1713 1 21.9781 4.94139 3.80605
2030 1 22.7842 5.69804 3.90925
2027 1 23.61 4.62825 3.33884
2040 1 25.5804 4.56023 3.46203
2348 1 24.3887 5.51076 3.1515
2036 1 26.5455 4.36822 3.24033
2112 1 26.3068 5.43365 3.85023
2335 1 27.5535 4.45463 2.8793
2035 1 27.1606 4.8834 3.73102
2037 1 28.2638 5.26752 4.08492
108 1 28.3911 5.27287 3.02295
107 1 28.6366 4.4213 3.41537
194 1 29.304 5.34898 4.08126
204 1 0.0624804 6.00611 3.59908
190 1 0.334132 7.13513 3.65842
189 1 0.845217 6.56289 3.11388
202 1 1.10969 6.48689 4.27423
184 1 2.25837 6.65379 3.62564
419 1 3.69238 5.85922 3.53588
281 1 3.19953 6.67289 3.02726
500 1 4.51261 7.11388 3.61343
512 1 5.06081 6.26838 4.00734
594 1 6.9068 5.76409 3.5093
593 1 5.92816 5.89505 3.43015
587 1 6.51482 6.80062 4.22679
819 1 7.27189 6.76137 3.28007
811 1 8.38146 6.45574 2.98173
504 1 7.7489 6.38444 4.09539
1135 1 9.62291 6.05806 3.0083
812 1 8.80129 6.33871 3.78145
897 1 9.84817 6.17946 3.96639
824 1 10.9704 5.71695 2.88571
898 1 10.6497 6.4776 3.53
1277 1 11.4904 6.94588 2.98492
1170 1 12.0342 6.46352 3.72159
1137 1 13.2528 5.7452 3.57224
1148 1 14.1165 6.28722 3.40396
1233 1 13.2917 6.97706 4.023
1160 1 14.924 6.76089 4.12393
1142 1 15.554 6.93984 2.88355
1226 1 16.0573 5.91362 3.22085
1481 1 16.8818 6.69861 3.19389
1558 1 16.1881 6.73347 3.96534
1464 1 17.5449 5.7356 3.52813
1489 1 17.7197 6.62774 4.09541
1715 1 18.5408 5.90942 4.16035
1474 1 19.4325 5.8428 3.54125
1795 1 18.7916 6.91586 3.82834
1774 1 21.3226 6.73925 3.28836
1781 1 20.6331 5.72948 2.99744
2121 1 20.4998 6.44904 3.93098
1773 1 21.5017 5.7964 3.55337
2029 1 22.3648 6.51589 3.48362
2031 1 23.3256 6.01207 2.9942
1791 1 23.41 6.85892 3.69101
2118 1 23.9698 5.78766 4.0708
2347 1 25.3292 5.79792 3.41954
2102 1 24.4369 6.65121 3.32622
2358 1 26.8602 5.82038 2.89735
2337 1 26.5082 6.65769 3.2405
2414 1 27.111 6.01156 4.18463
2428 1 26.7682 7.02453 4.22275
2499 1 28.2678 6.99789 3.50115
2413 1 27.803 6.13855 3.66353
207 1 28.8228 6.06044 3.57771
2438 1 29.2772 6.96771 3.82718
294 1 1.39355 7.52891 3.65561
58 1 1.3932 8.40969 2.8663
279 1 2.40745 7.44312 4.20528
280 1 2.53537 8.23031 3.71662
53 1 1.5805 8.30697 4.26103
575 1 3.79679 8.43476 3.11048
282 1 3.13076 7.57714 3.13641
569 1 5.49541 7.95595 3.57501
506 1 6.70574 7.69778 3.07577
588 1 6.48271 7.78821 4.16901
565 1 7.57689 7.84718 3.63738
566 1 8.45446 7.42784 3.49321
502 1 9.18483 8.38536 2.8948
803 1 9.53219 7.65957 3.67744
919 1 8.61461 8.26787 4.15978
1214 1 10.8289 7.70808 3.33514
804 1 10.2536 7.23371 4.13432
686 1 10.5498 8.48887 4.06665
1269 1 12.4965 7.4399 2.99808
1139 1 11.6873 7.42061 3.87319
1140 1 12.2813 8.16676 3.69407
1216 1 13.9128 7.76926 2.90029
1468 1 13.6646 7.89591 4.10276
1553 1 14.9823 7.73033 3.47363
1554 1 15.9177 7.75532 3.37384
1557 1 16.7276 7.50199 4.11819
1454 1 16.836 8.5007 3.4627
1490 1 17.9053 7.15341 3.36231
1807 1 18.2791 8.5695 3.68413
1808 1 17.9261 7.89088 4.19607
1547 1 19.1688 7.99257 3.17475
1548 1 19.8128 7.27544 3.15425
1893 1 19.6414 7.64067 4.23315
1868 1 19.9002 8.43646 3.64301
1853 1 20.8852 7.78328 2.92513
2122 1 20.7272 7.4255 4.14843
1859 1 21.0867 8.52896 3.69908
2107 1 21.6896 7.61486 3.76099
1792 1 22.8412 7.55184 3.35167
2169 1 24.1988 7.80961 2.91056
2275 1 24.0699 8.05828 3.95343
2276 1 24.9176 7.62301 3.90435
2199 1 25.2295 8.3185 3.16661
2338 1 26.3942 7.61227 3.36746
2191 1 25.8065 8.20134 4.08462
2518 1 27.0408 8.44293 4.12673
210 1 28.4759 7.90389 3.99003
2433 1 28.0568 8.34158 3.0622
2427 1 27.4593 7.54368 3.83681
2355 1 29.447 7.99594 3.1525
212 1 29.2919 8.4666 4.25
274 1 0.12645 9.70277 3.86857
54 1 1.32644 9.20997 3.93297
273 1 0.350946 8.75162 4.06703
57 1 1.83149 9.33829 2.92122
276 1 2.3847 9.29066 3.98944
24 1 2.73028 8.78809 2.87422
275 1 3.17779 9.56406 3.63972
277 1 3.98769 9.03355 4.22237
30 1 5.31297 9.9248 2.98255
571 1 5.44565 8.79372 2.86754
278 1 4.67076 8.94018 3.52392
596 1 6.0269 9.52249 3.84054
577 1 7.10744 9.83941 2.96348
505 1 6.4294 8.57201 3.46378
590 1 7.43764 8.92548 3.33071
589 1 8.09947 9.16821 3.90403
905 1 9.57055 8.7435 4.01021
584 1 9.84425 9.87676 4.21063
895 1 9.0408 9.5286 3.52632
1213 1 11.0631 8.6608 3.24007
906 1 10.1297 9.07079 3.33447
886 1 10.8881 9.61903 2.89844
1229 1 10.7663 9.47025 4.00875
903 1 11.9071 9.61562 3.51001
1235 1 12.8498 8.90835 4.24029
1219 1 12.9735 9.55566 3.41139
1152 1 13.5687 8.57843 3.46474
1220 1 13.9229 9.78453 3.35755
1228 1 15.4134 8.67176 3.55301
1227 1 14.9718 9.5488 3.6467
1570 1 16.2105 9.38396 3.28467
1574 1 18.4071 9.90793 3.44897
1573 1 17.6477 9.45162 3.10575
1497 1 17.478 8.91028 4.2759
1549 1 18.9156 9.04739 2.98077
1550 1 19.093 9.14939 3.93305
1867 1 19.9181 9.38875 3.41441
1871 1 21.3158 9.54128 3.67488
1860 1 22.0143 8.66537 3.71006
1861 1 22.5296 9.71148 3.69139
2177 1 23.0972 8.94458 3.07407
2190 1 23.2453 8.72409 4.19294
1926 1 24.4134 9.65738 3.28263
2192 1 25.4873 9.11178 4.20831
2200 1 26.1297 8.66478 3.11332
2505 1 26.8837 9.40248 3.47002
290 1 27.9622 9.51867 3.06094
2280 1 27.7286 9.45367 4.05027
291 1 29.65 8.93096 3.25558
2457 1 28.5851 8.97215 3.83815
292 1 29.0667 9.74774 3.31396
42 1 0.446027 0.768076 4.48684
39 1 1.88533 1.06243 4.94221
49 1 2.64444 0.0799191 5.61615
360 1 3.62437 0.368711 4.37296
448 1 3.8305 1.37593 4.6758
447 1 3.07297 0.974514 5.08474
358 1 4.99407 0.778829 4.73097
595 1 5.81119 0.329835 4.32325
781 1 5.96242 1.18128 4.87291
782 1 6.67159 0.552996 4.90885
615 1 7.88105 0.387876 5.04952
683 1 7.44816 1.30438 5.14043
682 1 8.74341 0.840964 4.98672
654 1 9.79719 0.833779 4.65995
653 1 9.61113 0.0741827 5.33119
1230 1 10.7309 0.208905 4.65343
910 1 10.2796 0.807831 5.51596
909 1 11.1818 0.57693 5.6909
1206 1 11.7619 0.399763 4.69163
1208 1 12.6259 0.356991 5.69267
1240 1 12.7016 1.13173 4.96514
1207 1 13.3419 0.126312 5.02183
1248 1 14.1889 0.282788 5.71364
677 1 14.0544 1.17972 5.11011
1246 1 14.3215 0.118438 4.38055
999 1 15.3711 0.632836 4.50713
1401 1 15.7659 0.688123 5.66132
1328 1 16.4747 1.37478 5.06426
1402 1 16.5694 0.23636 5.40228
1327 1 17.2954 0.857515 4.79389
1639 1 18.5235 0.417452 4.63404
1896 1 18.7298 0.704472 5.60843
1659 1 20.2258 1.11471 4.66493
1634 1 21.1335 0.434577 4.59672
1658 1 20.6935 0.0907667 5.66516
1856 1 22.7624 0.250496 5.44885
1855 1 22.8513 0.257632 4.47506
1635 1 22.3888 1.16433 4.92889
2193 1 23.4403 1.08705 5.39682
2194 1 24.1512 0.424183 5.22911
2256 1 25.223 1.07132 4.40714
1983 1 25.1934 0.492391 5.42735
2513 1 26.5768 0.97389 4.65954
2274 1 25.9914 0.136818 4.68686
2514 1 26.5015 0.847962 5.57961
2279 1 27.8836 0.376134 4.34415
2295 1 28.1835 1.23402 4.79182
1976 1 27.395 0.501704 5.34314
2293 1 29.7567 0.327845 5.16571
2528 1 29.1066 0.79347 4.36663
2304 1 28.9358 0.524462 5.65434
2385 1 29.5653 1.42014 5.14737
2352 1 0.839531 1.46209 5.06593
2447 1 1.22561 2.40028 5.58594
2351 1 0.194714 2.0474 4.77951
122 1 1.56707 1.98436 4.56889
45 1 2.51713 1.9226 5.23473
46 1 2.0968 2.81229 5.25557
128 1 3.28275 2.6901 5.09361
61 1 3.67978 1.69135 5.60124
357 1 4.80782 1.67345 4.46907
437 1 5.08695 1.75955 5.39252
428 1 6.70096 1.86009 4.89064
349 1 5.8679 2.67048 5.1644
343 1 7.7549 2.02888 4.42182
665 1 8.54085 2.83811 4.67681
361 1 7.73341 2.59729 5.29382
362 1 8.37501 1.86122 5.21167
754 1 9.41492 1.76754 5.32625
753 1 9.48189 2.71212 5.24135
982 1 10.3963 1.95829 4.59914
981 1 10.4631 2.82954 4.29213
995 1 11.1827 1.56646 5.00338
996 1 10.4432 1.83485 5.60127
672 1 10.6391 2.78726 5.33107
737 1 11.4854 2.61046 4.71224
738 1 12.2426 2.16661 4.36152
1237 1 12.3477 2.04925 5.36068
1239 1 13.1909 1.89577 4.62957
998 1 15.118 2.39874 4.56297
1090 1 15.6497 2.00127 5.33583
1162 1 14.3649 2.2956 5.40605
1403 1 16.4783 2.43951 4.96
1392 1 18.2853 1.52066 4.84173
1319 1 17.313 1.86017 5.34502
1741 1 18.1848 2.58041 5.09904
1641 1 19.1509 2.25934 4.7016
1642 1 19.478 1.80951 5.51691
1660 1 20.4387 2.03874 4.33242
1717 1 21.2947 1.47549 4.71601
1719 1 20.5948 1.77857 5.48212
1733 1 21.0274 2.73933 4.95807
1734 1 21.8892 2.32564 4.55553
1654 1 22.4692 2.73796 5.5455
1648 1 21.5674 1.79887 5.65838
1623 1 23.1492 2.05717 4.8591
1948 1 25.4644 2.44156 4.59995
1955 1 24.4064 1.49091 4.84914
1947 1 25.4849 2.46942 5.54779
1945 1 24.4209 2.41565 5.21893
2255 1 25.6442 1.55552 5.16164
2362 1 26.1397 1.81378 4.29972
1973 1 26.5643 2.33165 5.64377
2123 1 26.7134 2.8353 4.31811
2282 1 27.7314 2.3282 4.35418
2296 1 27.3775 1.63894 5.16014
2386 1 28.8937 2.05408 5.09588
2442 1 29.9517 2.75622 5.4885
2448 1 0.766402 2.86167 4.85754
2360 1 0.307977 3.79181 5.11289
127 1 2.80194 3.51645 4.88339
126 1 1.77446 3.86997 4.94006
130 1 3.79524 3.66599 5.30015
129 1 4.38604 2.93306 5.3193
431 1 5.46878 3.54746 5.55798
760 1 6.83148 3.17459 5.00068
432 1 5.75138 3.65819 4.59583
667 1 8.19475 3.3691 5.65938
829 1 7.51049 4.15082 5.317
761 1 8.85692 3.86924 4.85132
748 1 9.87502 3.61613 4.60336
671 1 11.0545 3.55358 4.84178
778 1 10.3005 3.88992 5.5565
1075 1 12.2346 3.3784 4.53203
1167 1 12.7396 4.13147 5.16268
1014 1 12.0496 3.02542 5.43287
983 1 14.1209 2.97253 4.71675
1081 1 13.1234 3.00606 4.87948
1079 1 13.7319 4.24097 5.09343
1080 1 14.4152 4.11915 4.46443
1134 1 15.1681 3.46311 4.87976
1381 1 16.2928 3.68579 4.59593
1404 1 16.0559 3.08045 5.62146
1420 1 17.3065 4.07959 4.37333
1742 1 18.229 3.53304 5.29088
1411 1 17.374 3.19343 4.85598
1311 1 19.8655 3.20423 4.7955
1731 1 19.0306 4.12543 4.90365
1752 1 19.2041 2.89236 5.66148
1732 1 19.9674 4.20918 5.28738
1650 1 21.0069 3.78962 5.00083
1649 1 20.5864 3.34036 5.70629
1729 1 22.3006 3.32148 4.53494
1730 1 22.032 3.69174 5.34253
1624 1 23.4769 2.87245 5.18783
1627 1 23.4543 3.25665 4.32362
2046 1 24.1472 4.05015 5.48492
2041 1 22.9685 4.12845 5.3455
1946 1 24.7028 3.29059 4.93234
2049 1 26.6371 3.41153 5.58054
1966 1 25.7779 4.09736 5.50171
1965 1 25.845 3.31678 4.91745
2050 1 27.055 4.18258 5.25459
2281 1 27.4061 2.93739 5.0752
2365 1 27.644 4.25746 4.39583
2366 1 28.1774 3.63973 4.87725
2285 1 28.5347 2.97682 5.57048
200 1 29.1359 4.15751 4.33506
2441 1 29.3633 2.94294 4.75473
203 1 0.493645 5.64763 4.30011
2369 1 0.961047 4.55586 4.32134
124 1 0.667687 4.77825 5.20539
123 1 1.1864 5.63455 5.04801
592 1 2.39672 5.33483 5.04398
191 1 2.95332 4.5462 5.14911
116 1 3.92585 4.72827 5.16988
591 1 3.24112 5.70201 5.07441
441 1 4.9399 5.18896 4.36981
115 1 4.87242 4.53838 5.28115
522 1 4.95269 5.63828 5.48706
348 1 6.79412 4.81745 4.88458
827 1 7.6815 5.22898 5.67333
830 1 8.17364 4.60111 4.83011
503 1 7.50714 5.62976 4.66234
751 1 8.94849 5.04629 4.45579
752 1 9.85481 4.716 4.39575
749 1 8.77268 5.30538 5.68289
750 1 9.41703 4.60404 5.36002
846 1 10.247 5.56779 4.91222
757 1 11.0244 4.63117 4.39646
1094 1 11.2314 4.79599 5.56435
1168 1 12.1003 4.76788 4.77504
1059 1 14.2054 5.61177 4.5004
1189 1 13.1815 5.11974 4.81597
1097 1 14.9447 4.83549 5.37574
1098 1 15.7266 4.49034 5.01369
1475 1 16.7754 5.00197 4.87871
1496 1 15.9393 5.55686 5.25304
1463 1 17.6221 5.1418 4.3448
1397 1 17.5712 4.5183 5.34497
1398 1 18.3378 5.02641 5.07249
1725 1 19.3893 4.97078 5.58359
1799 1 19.8409 5.57813 4.67275
1701 1 20.2857 4.5831 4.40729
1702 1 20.6697 4.97094 5.1798
1723 1 21.4191 5.67541 5.60997
1714 1 21.5372 4.59004 4.65555
2042 1 22.5472 4.3979 4.48951
1739 1 22.5138 5.69588 5.59342
1962 1 23.5995 4.49633 4.39405
1961 1 23.1571 5.21881 4.70802
2025 1 24.8298 4.89174 5.35991
2026 1 24.7108 5.05663 4.44222
2128 1 25.6087 5.53536 5.15172
2367 1 26.0737 4.73264 4.68183
2368 1 26.9577 5.10859 4.73886
2465 1 28.1475 4.70293 5.26267
2436 1 27.7399 5.61496 5.70189
117 1 29.6946 4.78461 5.13563
193 1 28.7829 5.34696 4.88725
138 1 0.422444 6.60393 5.04596
137 1 1.1459 6.37902 5.6276
284 1 2.08125 6.26542 4.85985
283 1 2.80644 6.73918 5.26084
201 1 1.57372 7.06724 4.8684
499 1 3.97318 6.87736 4.43891
183 1 2.93664 6.52416 4.30001
219 1 4.07 6.30334 5.40448
511 1 5.53113 7.03978 4.34089
509 1 4.94324 6.72702 5.30995
514 1 6.17968 5.75784 4.88625
513 1 6.93155 6.30865 5.33561
1064 1 8.329 6.09294 5.05555
1063 1 7.85081 6.8301 5.40366
917 1 8.34573 7.1298 4.52751
845 1 9.32761 5.94717 4.89308
831 1 9.86676 6.8763 5.12421
835 1 10.8105 6.42691 4.71807
1156 1 11.2638 6.53187 5.63051
836 1 11.4642 5.7258 4.71324
1169 1 12.0575 6.61676 4.70029
1153 1 12.6297 5.81031 5.43156
1190 1 13.1667 6.07073 4.70888
1252 1 13.1615 7.04866 5.14059
1255 1 13.9928 6.70583 5.6359
1072 1 15.6163 5.91553 4.36552
1177 1 14.8007 6.30886 5.06225
1476 1 16.7855 5.84287 4.36493
1499 1 16.0861 6.54839 5.18174
1495 1 16.8713 5.75947 5.55124
1485 1 17.2059 6.66245 4.98893
1421 1 18.4705 6.85315 5.01899
1486 1 17.7257 5.86442 5.05139
1478 1 18.8924 5.83912 5.29111
1796 1 19.4023 6.55049 4.49661
1790 1 20.7812 5.93063 4.83204
1800 1 20.094 5.77138 5.54157
1801 1 20.1662 6.96434 5.08549
1787 1 21.5587 6.67014 4.30934
1883 1 21.6599 6.64701 5.56828
1788 1 21.7971 5.81706 4.63034
2114 1 22.4905 6.52038 4.93755
2117 1 23.592 6.27098 4.83439
2127 1 24.8347 6.10119 5.03565
2129 1 24.9496 6.72506 4.33439
2111 1 25.9701 6.21651 4.40485
2140 1 26.8647 6.7075 5.32631
2133 1 25.7844 6.86651 5.39434
2445 1 27.9588 6.81459 4.58278
2038 1 27.9457 5.83595 4.75116
2446 1 28.3863 6.38102 5.40469
118 1 29.8607 5.7184 5.04724
113 1 29.6513 6.9614 5.59858
2437 1 29.2032 6.49331 4.63342
293 1 0.768328 7.66199 4.4278
214 1 0.327803 8.27515 5.09141
2308 1 2.15522 7.84933 5.28025
515 1 3.81223 7.90117 4.48024
35 1 3.13222 7.76666 5.31028
269 1 4.17451 7.81621 5.46886
36 1 3.13421 8.55052 4.73251
516 1 4.70572 8.20427 4.33902
510 1 5.22669 7.64082 5.15333
582 1 6.42407 7.47046 5.1525
916 1 7.01313 8.36446 5.65357
603 1 7.21776 8.49573 4.44982
918 1 7.35734 7.35503 4.56969
920 1 8.16324 8.02895 4.99496
1173 1 9.58579 7.96676 4.89245
833 1 8.97785 7.34853 5.38135
921 1 10.848 7.38192 5.08276
1174 1 10.1104 8.22371 5.61077
685 1 11.0354 8.32744 4.8753
1234 1 12.6144 7.54985 4.34831
1242 1 12.1656 8.30063 5.13494
1159 1 14.2614 7.17167 4.65449
1467 1 13.2174 8.12909 4.93201
1541 1 14.1548 8.53092 5.10473
1542 1 14.7045 8.41407 4.30937
1145 1 15.6674 7.50523 4.51544
1576 1 14.3686 7.65625 5.59443
1146 1 15.2131 7.20297 5.31446
1564 1 15.571 8.46698 5.11966
1563 1 16.1153 8.51853 4.29717
1559 1 17.0822 7.66664 5.28775
1560 1 16.174 7.66613 5.65961
1498 1 17.6234 8.53086 5.1503
1805 1 18.3528 7.93186 5.57377
1894 1 19.2868 7.49064 5.06012
1903 1 18.9425 8.57076 4.92937
1492 1 20.1232 8.16146 5.70994
1491 1 20.3593 8.25368 4.75349
1863 1 21.1891 7.52279 5.24964
1864 1 21.4978 8.30662 4.70996
2108 1 22.3275 7.56104 4.46383
2197 1 23.9456 8.0802 4.98061
2198 1 23.2863 7.37221 4.83702
1885 1 22.8953 8.15199 5.39793
2130 1 25.6924 7.26002 4.52171
2202 1 24.6803 7.3987 5.36368
2451 1 25.8455 8.49783 5.24127
2443 1 26.7217 7.75131 5.05106
2444 1 27.6241 7.9431 4.85163
2203 1 27.9166 7.3901 5.68958
209 1 28.7032 7.48171 4.78512
2439 1 29.3358 8.48629 5.39184
211 1 29.785 7.6192 4.47404
2292 1 0.541062 9.76762 4.78761
44 1 1.06631 8.89314 5.04774
43 1 0.523471 9.31041 5.70414
34 1 1.64261 9.90195 4.7502
33 1 2.10038 9.18157 5.23122
359 1 3.13598 9.65166 4.78577
59 1 3.98435 8.96522 5.70037
261 1 4.37574 9.95663 4.88883
600 1 4.74811 8.85569 5.07196
599 1 5.29127 9.37714 4.48194
604 1 6.96039 9.39715 4.29043
598 1 6.04482 8.67386 4.4786
368 1 6.19485 9.62853 5.11696
367 1 7.08494 9.31089 5.381
597 1 5.82639 8.70884 5.37541
585 1 8.00888 8.96991 5.41522
583 1 8.92647 9.85166 4.60455
914 1 9.17484 8.90633 4.95237
924 1 8.71598 9.67846 5.63998
913 1 10.119 9.2281 4.89583
1223 1 11.7704 9.37119 5.38032
1224 1 11.9069 9.11576 4.38855
1236 1 12.8303 9.29431 5.16702
1245 1 13.8153 9.26188 4.34376
1247 1 14.4621 9.44208 5.34308
1315 1 15.1569 9.3212 4.65746
1316 1 15.5553 9.71058 5.49391
1579 1 16.6923 9.15144 5.39671
1580 1 16.5814 9.59261 4.5782
1904 1 18.4047 9.33965 4.67194
1561 1 17.5607 9.77244 5.13303
1887 1 19.8612 9.66861 4.45631
1888 1 19.9652 9.06576 5.247
1895 1 19.2965 9.91675 5.47806
1872 1 20.835 9.25717 4.50918
1890 1 21.0573 8.65813 5.55146
1637 1 22.3452 9.16636 4.59371
1643 1 21.7641 9.61764 5.31129
1638 1 22.7835 9.19407 5.44056
2189 1 24.1574 8.95248 4.32428
1949 1 23.5404 9.6985 4.93126
1950 1 23.8128 8.97234 5.50192
2512 1 24.7191 9.49733 5.65068
2452 1 24.8737 8.60662 5.23013
2511 1 25.5334 9.40954 5.20049
2517 1 26.4911 9.0428 4.53228
2119 1 26.6299 8.98692 5.67789
1975 1 27.2175 9.61053 4.97044
2458 1 28.4126 8.88525 4.76989
2120 1 27.5873 8.63902 5.69536
2527 1 28.84 9.89127 4.42632
2291 1 29.6876 9.30002 4.77636
300 1 0.652843 0.475136 5.87758
2377 1 0.284527 1.08929 7.03572
40 1 1.60505 1.32254 5.79662
70 1 2.30317 0.58314 6.39996
364 1 4.0279 0.00542677 5.95119
67 1 4.12623 0.745755 6.69678
374 1 5.55733 1.17075 6.57978
363 1 4.72902 0.603994 5.7444
373 1 5.93469 0.625532 5.84437
618 1 6.9746 0.257386 5.81392
323 1 7.10137 1.30825 6.93742
622 1 8.0348 0.770981 6.47829
681 1 8.84737 0.939741 5.98801
698 1 9.72352 0.128486 6.74556
674 1 10.7067 0.677276 6.55402
1238 1 12 1.21461 5.77098
1572 1 12.6922 0.666554 6.63004
1571 1 13.6982 0.819277 6.61839
1322 1 14.5459 0.278443 6.69078
1332 1 14.7998 1.18935 5.8676
1331 1 15.3217 1.07712 6.71226
1323 1 16.6296 0.12375 6.45444
1333 1 16.2558 1.398 6.54801
1661 1 17.3999 0.748735 5.86848
1662 1 17.1896 0.86693 6.8116
1897 1 18.1821 0.707029 6.67369
1657 1 19.9389 0.648592 5.79372
1898 1 19.0906 0.204225 6.53873
1655 1 19.8287 1.30665 6.63513
1720 1 20.816 1.17785 6.20264
1737 1 21.2896 0.0783274 6.71139
1738 1 20.3438 0.282188 6.63559
1647 1 21.684 0.87974 5.81214
2210 1 22.2494 0.6865 6.80331
1980 1 21.476 1.1822 7.09822
1954 1 23.2256 0.719585 6.39886
2224 1 24.1748 1.01187 6.93405
1922 1 24.4164 0.288125 6.20542
2223 1 25.0584 0.570875 7.09199
1978 1 25.9506 0.907823 6.72721
2531 1 26.0806 0.0165281 7.12281
2242 1 28.1354 1.00344 6.87088
2241 1 27.3697 0.713412 6.41632
299 1 29.8656 1.0033 6.02806
2283 1 29.7607 0.0204247 6.66606
301 1 0.365431 2.04088 6.0378
302 1 1.02841 1.69861 6.65492
143 1 1.0426 2.65516 6.70077
48 1 2.05588 2.42032 6.22113
69 1 2.07185 1.45538 6.91976
62 1 2.96503 1.86084 6.25593
197 1 3.80648 2.78099 6.18876
365 1 4.53133 1.82297 6.50087
438 1 5.69628 2.06263 6.10331
198 1 4.81723 2.69195 6.2488
324 1 6.6898 1.46535 6.12434
759 1 6.85808 2.56159 5.77008
792 1 6.85921 2.40428 6.84946
689 1 8.3199 1.86882 6.81429
684 1 7.68564 1.56529 6.03673
668 1 7.83527 2.79056 6.35464
690 1 8.72528 2.27992 6.07598
641 1 9.74051 1.57442 6.47467
673 1 11.0831 1.47265 6.42971
642 1 10.3072 2.37565 6.51096
1070 1 12.7906 1.89042 6.59286
1013 1 11.6062 2.47067 6.0826
678 1 13.3838 1.57454 5.74952
1069 1 13.5567 2.52273 6.70681
1021 1 14.1819 1.74713 6.68593
1089 1 15.4991 2.25105 6.3044
1334 1 16.555 2.11504 5.98453
1320 1 17.9877 2.12774 5.94326
1366 1 17.2025 1.89929 6.74818
1326 1 18.8713 2.21374 6.52459
1410 1 19.8926 2.5104 6.33509
1409 1 20.7513 2.27231 6.69922
1636 1 22.4904 1.59137 5.80702
1986 1 21.8116 2.5834 6.62281
1653 1 23.0417 2.38025 6.24902
1957 1 23.7493 2.79606 7.00435
1951 1 24.09 1.72284 6.03716
1646 1 23.0393 1.6593 6.91582
1952 1 25.0463 1.46441 6.07146
1972 1 24.8704 2.27339 6.76667
1974 1 25.9946 1.79382 6.1183
2373 1 27.0919 1.79608 6.46452
1967 1 26.0039 2.82113 6.44891
2286 1 27.8546 2.27838 5.73798
2374 1 27.1882 2.72283 6.42596
2310 1 28.2939 2.1962 7.00325
2303 1 28.8446 1.4412 5.89134
2383 1 29.3376 2.74691 6.23629
141 1 0.986761 3.35831 5.87836
142 1 0.159149 3.50471 6.2549
150 1 1.22009 3.77686 6.91158
125 1 2.32072 4.0272 5.74472
47 1 1.95131 3.34533 6.44624
51 1 2.91425 3.22257 6.00988
52 1 2.92046 3.21162 7.06022
457 1 3.72192 3.90595 6.41411
458 1 4.50237 3.46133 6.86913
440 1 6.41395 3.94267 5.71787
449 1 6.05209 3.12544 6.53875
456 1 6.98788 3.43387 6.52296
694 1 8.46464 4.01885 6.70157
762 1 9.22391 3.55336 5.72055
675 1 8.76655 3.11656 6.95149
783 1 9.75634 3.41401 6.61951
777 1 10.9465 3.76831 6.22619
1096 1 12.5089 2.98438 6.94218
771 1 11.9926 3.96899 6.12833
1161 1 14.0403 3.08366 5.76648
1082 1 13.0101 3.00141 5.85672
1172 1 13.2742 4.16214 6.54451
1150 1 14.027 3.59921 7.02725
1133 1 15.0935 3.65689 5.80879
1149 1 14.6229 2.88865 6.68436
1506 1 14.9078 4.25897 6.96273
1418 1 15.6773 2.97337 7.08897
1412 1 17.1067 2.94403 5.74267
1084 1 16.3319 3.61963 6.49114
1164 1 16.5608 4.24988 5.73497
1083 1 16.9683 3.50741 7.13787
1163 1 17.3332 3.87361 6.19501
1751 1 18.529 3.28344 6.22955
1427 1 17.898 3.08484 7.07518
1670 1 19.322 3.15746 6.82173
1726 1 19.1735 4.09014 5.91897
1664 1 21.1457 4.22396 6.26198
1688 1 20.0926 3.86678 6.71855
1690 1 21.1606 3.41674 6.8152
1689 1 22.0429 3.61868 6.42082
1970 1 24.2628 3.0419 5.97905
1969 1 23.3744 3.41669 6.0606
1958 1 23.0545 3.44269 7.06593
2064 1 23.8947 3.96186 6.80966
2045 1 24.914 3.97725 6.05598
2063 1 24.7685 3.48757 7.0218
2137 1 26.7063 3.48811 6.83846
2138 1 25.808 3.83041 6.74958
2372 1 27.584 3.68171 6.01904
2381 1 28.3934 4.23046 6.85488
2382 1 28.2985 3.33465 6.72109
2384 1 29.2669 3.61158 5.77441
149 1 1.24325 4.45619 6.15235
2454 1 0.0834745 4.45124 6.02656
134 1 0.646886 5.28301 6.38114
133 1 0.44583 4.55179 6.90459
547 1 2.61342 4.3745 6.80991
469 1 2.58861 5.37094 6.63775
236 1 1.77948 5.2916 5.80246
192 1 3.08461 4.82895 6.02439
518 1 4.09383 4.82277 6.59922
517 1 4.89838 4.37171 6.38247
521 1 5.09546 5.33757 6.40856
439 1 5.80423 4.68966 5.79388
763 1 6.73378 5.27201 5.81793
464 1 5.90108 4.51864 6.88602
764 1 6.21588 5.48824 6.58887
455 1 7.29632 4.33953 6.33621
693 1 8.4601 4.33312 5.81799
443 1 7.80775 5.17875 6.76951
769 1 9.55456 5.16142 6.28126
765 1 8.98963 4.86085 7.02324
770 1 10.0985 4.43991 6.6896
1103 1 11.1792 5.00082 6.68212
1093 1 11.7109 5.5653 5.80656
772 1 12.3707 4.87993 6.32439
1104 1 11.8534 4.55806 7.11983
1171 1 13.3953 4.8442 5.87698
1192 1 13.8216 4.82329 7.02056
1505 1 14.3332 4.38605 6.19085
1191 1 14.5282 5.50764 6.89338
1501 1 15.6137 5.24836 6.94239
1414 1 15.7278 4.62435 6.1883
1413 1 16.6013 4.99094 6.33414
1665 1 17.9539 5.40197 5.98397
1666 1 18.1611 4.47775 6.16577
1423 1 17.5825 5.275 7.13094
1686 1 19.863 4.95834 6.58201
1405 1 18.8575 4.8497 7.03609
1663 1 20.723 5.08687 6.17786
1754 1 21.9649 4.79116 6.81832
1753 1 21.923 4.78156 5.79941
1684 1 23.0389 4.95113 6.89363
1963 1 23.47 4.89585 5.95109
2054 1 23.9352 5.37151 6.93375
1964 1 24.3683 4.72503 6.34591
1722 1 24.7814 5.70989 6.13605
2043 1 25.5232 4.89452 6.29732
2044 1 25.049 4.7139 7.11178
1811 1 26.1898 4.76325 7.0535
1812 1 26.4759 4.35456 6.19098
2449 1 26.6875 5.41664 5.91152
2371 1 27.4006 4.53622 6.46073
2466 1 28.7224 4.73191 6.03163
2453 1 29.4756 4.37116 6.76448
114 1 0.0421611 6.32747 6.09449
235 1 1.52108 5.75248 6.67218
206 1 2.24571 6.3075 6.01458
220 1 4.05714 5.99069 6.31261
205 1 3.13122 6.47969 6.24724
285 1 3.78275 6.97865 7.13628
839 1 5.00641 6.53882 6.32957
840 1 5.78068 6.17995 5.85803
608 1 6.57615 6.74829 6.3617
849 1 7.07422 6.02531 7.02764
828 1 7.60316 6.09776 6.06558
526 1 7.92914 6.88225 6.65446
832 1 9.7247 6.14703 5.83564
851 1 8.69199 6.31937 5.98226
852 1 8.70255 5.7679 6.77414
822 1 9.38999 7.06445 6.35175
922 1 10.6008 7.12991 5.98417
843 1 10.6251 5.85757 6.18432
844 1 10.4371 6.45924 6.99317
1155 1 11.6179 6.30066 6.56056
1154 1 12.3484 6.60325 5.81931
854 1 12.5554 6.94397 6.77571
1182 1 12.6673 5.79604 6.52606
1181 1 13.6017 6.02992 6.61601
940 1 13.6886 7.07093 6.9978
1178 1 14.8905 5.91064 5.94585
1256 1 14.5387 6.98424 6.34837
1415 1 15.5757 6.90796 6.42647
1416 1 15.9952 6.07379 6.151
1507 1 16.9773 6.06543 6.66342
1500 1 16.7195 6.80733 5.90027
1508 1 16.2611 6.59029 7.02418
1744 1 17.7732 6.35367 5.97938
1743 1 18.1284 6.5259 6.84168
1823 1 17.1745 7.10936 6.84571
1422 1 18.75 6.76066 6.02329
1802 1 19.9746 7.04865 6.09464
1477 1 19.0728 5.79638 6.23896
1826 1 19.175 6.5885 6.85713
1735 1 19.9846 6.10867 6.723
1724 1 20.959 6.0732 6.3307
1740 1 22.1985 5.88239 6.52514
1879 1 22.2651 6.86109 6.7024
1721 1 23.9422 5.80931 5.72758
2113 1 22.977 6.63265 5.74999
2053 1 23.4333 6.14213 6.94708
2116 1 24.0809 6.63227 6.18364
2149 1 24.2621 7.10076 7.04989
2134 1 25.7025 6.17319 6.08949
2115 1 24.9864 6.88635 6.22925
2450 1 26.6525 6.09437 6.58176
2139 1 26.4157 7.07262 6.11283
2435 1 27.5487 6.40563 6.16185
216 1 28.4831 6.00462 6.51386
215 1 29.1781 5.82414 5.90392
2204 1 28.6317 6.99374 6.1348
213 1 0.505561 7.56897 5.76956
224 1 1.39993 7.44198 6.37027
222 1 0.247104 7.16573 6.84353
218 1 0.0642702 8.04377 6.49831
223 1 2.12493 7.88779 6.90912
227 1 2.58567 7.32709 6.16721
2307 1 1.47871 8.27357 5.83213
295 1 2.58436 8.41538 6.08309
270 1 4.0112 7.25362 6.26679
228 1 3.1172 7.82464 6.76426
60 1 4.06939 8.4064 6.50938
611 1 4.95094 7.84937 6.31445
581 1 6.1211 7.87684 6.02649
607 1 5.88837 7.26129 6.80447
927 1 6.63837 8.30636 7.05693
928 1 6.97194 7.46239 6.99155
915 1 7.4258 7.54933 6.0063
586 1 8.04665 8.34029 6.21989
834 1 9.12528 8.07012 6.02283
821 1 9.80728 7.8194 6.66863
857 1 8.63067 7.70969 7.02518
936 1 11.3203 8.0078 5.84922
935 1 10.8359 7.99599 6.71321
1251 1 12.5406 7.56455 5.72198
853 1 11.9288 7.6656 6.5086
1266 1 13.5274 8.54166 5.99684
1166 1 14.2507 8.00133 6.98763
1265 1 13.1163 7.87096 6.62417
1335 1 15.4357 8.01812 6.70404
1575 1 14.7655 8.4567 5.95634
1588 1 16.631 7.98971 6.49233
1806 1 17.7681 7.48594 6.15509
1494 1 17.696 8.50997 6.39607
1825 1 19.1704 7.49794 6.98711
1816 1 18.6213 8.34384 6.54887
1603 1 19.7527 8.41259 7.05186
1793 1 21.078 7.46521 6.25188
1794 1 20.6621 7.69768 7.05422
1884 1 22.1128 7.47727 5.7694
1889 1 21.9272 8.47656 5.78487
1875 1 21.7594 8.36431 6.88948
1886 1 22.7363 8.03346 6.28992
2195 1 23.5733 8.56985 6.78608
1786 1 23.5596 7.64033 5.83284
1785 1 23.2948 7.21553 6.69963
2201 1 24.4437 8.0864 6.06144
2207 1 25.4898 7.73852 6.13805
2141 1 25.0724 8.08469 7.0411
2302 1 26.8587 8.02888 6.15514
2301 1 26.4111 8.28432 6.93466
2440 1 28.5167 8.35489 5.9731
2455 1 27.2733 7.21067 6.6911
217 1 29.191 7.79203 6.57547
2525 1 1.35018 8.71548 6.74242
2312 1 0.977145 9.96907 6.84727
2516 1 0.362517 9.0092 6.84504
315 1 1.83045 9.6152 6.06988
316 1 2.04783 9.65826 6.97722
296 1 2.80712 8.86403 6.9037
50 1 3.11378 9.35396 5.9933
388 1 3.37053 9.8647 6.97299
355 1 4.94418 9.20643 5.95603
623 1 4.88771 8.94644 6.95658
356 1 5.22795 9.99264 6.45499
624 1 5.74812 8.70318 6.68186
945 1 6.18635 9.72428 6.69979
946 1 6.7345 8.99417 6.31036
617 1 7.61927 9.72904 6.30266
838 1 9.03369 8.72651 6.83045
923 1 9.54922 9.18366 5.84898
697 1 8.7854 9.98198 6.82671
837 1 9.99549 8.92434 6.76794
1012 1 11.3311 9.80891 6.57901
669 1 10.5243 9.74133 5.73603
670 1 10.8414 8.86158 6.08606
1241 1 12.3685 8.6116 5.99558
1568 1 12.3837 9.64839 6.6743
1487 1 13.3864 9.80956 6.98939
1488 1 13.3457 9.70595 6.02122
1258 1 15.3009 9.04967 7.04753
1257 1 14.3795 9.03309 6.80507
1324 1 15.7079 9.97061 6.47774
1493 1 16.9425 9.09411 6.43661
1336 1 15.955 8.7462 6.25978
1581 1 17.5377 9.75271 6.92736
1582 1 18.0009 9.83948 6.05306
1819 1 19.8323 9.3355 6.38101
1815 1 18.8585 9.10121 5.99936
1891 1 18.8971 9.22302 7.0521
1820 1 20.6216 8.82027 6.58616
1644 1 21.915 9.37993 6.22122
2196 1 22.8416 9.06034 6.42911
1921 1 24.0365 9.96103 7.02098
2209 1 22.8638 9.92872 6.94511
1953 1 23.4564 9.87617 6.11944
1984 1 25.4361 9.97396 6.26341
2208 1 25.3511 8.72332 6.16045
2125 1 25.2535 9.18604 7.10688
2126 1 24.5102 9.10858 6.53469
2532 1 26.4669 9.92669 6.21894
2216 1 26.8729 9.3941 7.06589
2297 1 28.5279 9.66011 6.1048
2521 1 27.4776 9.65925 6.14455
2522 1 27.7731 8.93976 6.6707
2298 1 28.4016 9.83313 7.03436
2294 1 29.5369 9.57994 5.79578
2515 1 29.4566 8.78681 6.85352
66 1 1.2872 1.02815 8.53151
2305 1 0.301169 0.866738 8.44389
2311 1 1.45319 0.726571 7.27266
74 1 2.23924 0.79488 8.01912
1 1 3.02181 1.32938 7.21487
2 1 3.49599 0.679317 7.79227
453 1 5.6833 1.26092 8.25126
605 1 4.73809 0.809716 7.80845
371 1 5.44314 0.129504 7.55953
372 1 6.21282 0.647115 7.39013
390 1 6.75891 0.475007 8.3302
621 1 8.11893 0.56798 7.4798
704 1 8.40835 0.766212 8.48653
699 1 9.42505 0.152654 7.95596
679 1 9.11912 1.30742 7.51086
1018 1 10.0978 1.04224 7.3829
696 1 10.0606 0.888585 8.54962
933 1 10.8028 0.232054 8.30577
1011 1 11.8305 0.365296 7.16919
1261 1 11.542 0.869803 7.90338
1087 1 12.4436 1.32473 7.40473
1591 1 13.0077 0.393857 7.83774
1337 1 14.0708 0.0428059 8.54465
1009 1 15.4441 0.23844 7.56228
1023 1 14.4442 0.942285 7.74761
1010 1 16.1429 0.91656 7.50813
1349 1 17.8336 0.555021 7.69889
1899 1 19.7045 0.622009 7.55815
1656 1 20.4872 1.34316 7.34511
2220 1 21.354 0.960062 8.07755
1652 1 20.2541 0.705912 8.42365
1694 1 22.3549 1.21003 8.52841
2219 1 22.1314 0.439927 7.80061
2218 1 23.1132 0.737733 7.58242
2217 1 23.5933 0.0215943 7.93991
1993 1 24.2924 0.866546 8.04376
1994 1 25.0339 0.227009 8.10091
1990 1 25.849 0.875198 7.99493
1977 1 26.7091 1.23409 7.23292
1924 1 26.7098 1.00774 8.47199
2530 1 27.9541 0.61422 7.97861
2529 1 27.6074 1.41599 8.33453
1997 1 29.1507 0.909754 8.21789
2378 1 0.887351 1.57148 7.67527
2399 1 0.0753697 2.37002 7.2697
81 1 1.02294 2.65373 7.89432
82 1 0.476757 2.22638 8.52371
75 1 2.73294 2.17468 8.40554
144 1 1.88943 2.59038 7.26639
76 1 1.84651 1.81659 8.20637
68 1 4.01969 1.48016 7.30876
307 1 3.41457 2.37297 7.41957
79 1 3.96174 1.47857 8.43477
366 1 4.9736 1.82105 7.37325
450 1 5.4964 2.78646 7.22665
308 1 4.31932 2.46473 7.71174
707 1 6.68697 1.77732 7.97732
708 1 6.05253 1.9127 7.33239
452 1 6.03267 2.49795 8.15393
702 1 7.93742 2.50668 7.69503
703 1 8.43884 1.71256 8.27077
767 1 7.19138 2.40027 8.54217
676 1 9.2486 2.41578 7.2551
680 1 9.43371 1.87496 8.16923
1116 1 8.82716 2.83466 8.4557
1017 1 10.9494 1.58027 7.41745
1092 1 11.0517 2.78038 8.02174
1268 1 11.3489 1.80925 8.48661
1006 1 10.0381 2.65175 8.46987
1263 1 12.0921 2.28586 7.75006
1088 1 12.3165 1.43401 8.3637
1022 1 13.5874 1.48566 7.47624
1024 1 14.0304 1.45075 8.45763
1264 1 13.0069 2.30815 8.04982
1016 1 13.9048 2.83611 7.68066
1015 1 14.4666 2.03371 7.76986
1028 1 15.4933 1.8764 7.46974
962 1 15.0476 2.73031 8.2752
1027 1 15.2621 1.60172 8.40391
1365 1 16.5107 2.24387 7.28874
1345 1 16.3031 2.01782 8.24231
1346 1 16.958 1.51089 7.85289
1667 1 18.1273 1.64254 7.72304
1428 1 17.4022 2.84316 7.75074
1325 1 18.7006 2.53551 7.43067
1906 1 19.9023 1.92688 8.2022
1668 1 18.8915 1.4879 7.33905
1905 1 19.6473 2.09704 7.25301
1747 1 20.4138 2.78778 7.58944
1700 1 21.0547 1.94664 8.09416
1979 1 22.0563 1.71973 7.62754
1645 1 22.7593 2.46642 7.31739
1996 1 22.4077 2.3523 8.37416
2214 1 24.1562 1.90722 7.57536
2213 1 24.1677 1.98512 8.50874
2056 1 23.1504 1.67982 7.98107
1971 1 25.1662 1.60999 7.49003
1981 1 25.5008 2.44155 8.43817
2075 1 25.2347 2.7685 7.49132
1968 1 26.1922 2.2031 7.21486
1923 1 26.4712 1.84237 8.19343
2380 1 27.0456 2.6618 8.45705
2379 1 27.2831 2.45854 7.5021
1998 1 28.6593 1.82235 8.33888
2309 1 28.9365 2.78372 7.49501
2400 1 29.5688 2.41499 8.08305
72 1 1.35026 4.25608 8.27306
2472 1 0.272318 3.25489 7.90609
160 1 2.06089 2.9572 8.19064
159 1 2.14779 3.66914 7.56937
548 1 3.32715 4.0636 7.48281
524 1 4.10535 3.47511 7.93541
405 1 3.12459 3.56358 8.49185
523 1 4.99599 3.86725 8.09019
463 1 6.07335 3.80469 7.39947
791 1 7.02072 2.95953 7.53273
877 1 7.01857 4.15999 7.42581
378 1 5.98896 3.44546 8.50953
701 1 7.90194 3.41562 7.41231
784 1 9.38167 3.60184 7.5152
774 1 8.69382 3.85085 8.56263
1105 1 10.64 3.79579 7.32417
1095 1 11.5732 3.20242 7.2731
1091 1 11.5221 3.67212 8.17105
1099 1 13.1087 3.39526 7.70436
1512 1 14.1478 3.97394 7.9349
1511 1 14.8689 3.468 7.57873
1378 1 15.4703 3.96236 8.55813
1436 1 16.5206 3.16122 8.04995
1417 1 15.927 3.84815 7.44296
1518 1 17.4756 3.87932 8.29014
1517 1 18.3129 3.77219 7.92778
1748 1 19.6007 3.23072 7.82036
1669 1 19.0545 3.94499 7.29261
1284 1 19.7519 4.1527 8.53863
1682 1 21.0268 3.89374 7.72652
1681 1 20.6682 3.32772 8.43082
1985 1 21.5926 2.87624 7.55381
1755 1 22.4434 4.17981 7.67615
2059 1 21.8573 3.54862 8.29005
2060 1 22.7952 3.49026 8.55497
2071 1 23.9826 3.34669 8.29482
2093 1 23.4425 4.2488 8.18217
2072 1 24.4235 4.15951 7.92778
2057 1 25.6959 4.15897 7.86513
2076 1 26.139 3.21716 7.72346
2058 1 26.6054 4.16791 8.06581
2061 1 27.5225 3.4677 7.55646
2393 1 28.0944 2.8803 8.29221
2471 1 29.628 3.36093 7.14772
145 1 28.5892 3.77063 7.95949
2324 1 29.6475 4.27628 7.74873
2323 1 0.308136 4.89033 7.93159
140 1 1.03337 5.56914 8.26501
147 1 2.59393 4.94892 7.62324
148 1 1.7386 4.6015 7.35423
136 1 2.10747 5.15897 8.48107
153 1 4.20329 4.54615 7.69964
154 1 3.73303 5.33217 7.44506
533 1 4.9819 5.28359 7.45467
528 1 5.12951 5.23274 8.51658
527 1 5.86491 4.84172 8.08008
878 1 6.91981 4.42009 8.39895
850 1 6.64094 5.3954 7.5567
773 1 8.47325 4.29188 7.76145
444 1 7.63466 5.10008 7.73317
766 1 8.77203 5.38742 7.76703
848 1 9.60352 4.57578 7.77521
847 1 10.0516 5.3581 7.32138
1106 1 10.8821 4.6523 7.59703
787 1 10.9268 5.58779 8.15087
1108 1 12.1669 5.68344 7.3381
1107 1 12.187 5.07636 8.11339
1100 1 12.8035 4.31133 7.53427
1176 1 13.2041 5.31605 7.79653
1020 1 13.1853 4.52866 8.53977
1117 1 14.4306 5.64885 7.96117
1118 1 14.8477 4.74201 8.05685
1426 1 15.8224 4.77571 7.87839
1425 1 16.7162 4.45802 7.58118
1502 1 16.4152 5.55766 7.33733
1042 1 15.8437 5.68616 8.24411
1361 1 17.0621 5.26757 8.26945
1424 1 17.8743 4.31338 7.24008
1439 1 18.1766 4.91269 8.04156
1406 1 18.5466 5.69462 7.32783
1440 1 19.0875 4.80826 8.0874
1685 1 19.865 5.32601 7.48008
1687 1 20.0423 4.29897 7.53017
1746 1 20.8338 4.76822 7.15636
1745 1 20.7544 4.83534 8.08512
1749 1 21.6721 5.69192 7.77292
1756 1 21.8068 4.75272 8.07364
1683 1 22.7743 5.29978 7.74147
2136 1 24.4145 5.44752 7.91352
2004 1 25.4816 5.13783 8.19422
2074 1 25.579 5.68558 7.35995
2048 1 26.6568 5.29427 7.91928
2047 1 27.5081 5.49098 7.60347
2062 1 27.675 4.39312 7.5189
2476 1 28.3618 5.60494 8.05351
146 1 28.5033 4.62173 8.32598
2375 1 29.7177 5.57681 7.14903
2376 1 28.8878 5.0651 7.26436
2461 1 0.719658 6.80709 8.09635
2462 1 0.705975 6.31803 7.23443
470 1 2.81071 5.99818 7.26524
139 1 1.69805 5.79145 7.66751
174 1 2.32605 6.23379 8.28492
231 1 2.52189 7.06641 7.63851
232 1 1.61232 6.81159 7.32055
540 1 3.34701 6.29656 7.9965
519 1 4.20974 6.21214 8.51552
286 1 4.57281 6.48137 7.40347
534 1 5.60504 6.01163 7.47877
609 1 5.49525 6.95454 7.75239
535 1 5.90453 6.0687 8.5058
610 1 6.48165 6.74779 7.70302
560 1 7.47971 6.28266 8.11361
525 1 8.20655 6.32235 7.37713
1184 1 9.75126 6.09194 8.2641
1183 1 9.68042 7.09508 8.41072
858 1 9.09681 6.90413 7.38279
932 1 11.2761 7.04687 7.33048
931 1 11.5295 6.48172 8.04531
1187 1 12.569 7.10846 8.49833
1175 1 13.0004 6.24985 7.75916
1193 1 13.4551 7.10482 8.08258
1041 1 15.2948 6.13579 7.5846
939 1 14.3797 6.63736 7.46031
1253 1 15.007 6.62474 8.45969
1509 1 16.4063 6.7608 8.08428
1429 1 17.4628 6.28386 7.56863
1430 1 18.0229 5.97797 8.24651
1851 1 19.1957 5.89086 8.21241
1831 1 18.5911 6.82285 7.84036
1736 1 19.8691 6.4737 7.60973
1750 1 20.8449 5.84362 7.37191
1803 1 21.3712 6.78937 7.24319
2083 1 20.057 6.13212 8.54621
1809 1 20.5574 7.03576 8.09002
1804 1 22.1972 6.60667 7.69757
2135 1 24.0189 6.34526 7.86282
1814 1 23.2284 7.05245 7.81907
2073 1 24.9296 6.31066 7.19598
2152 1 25.089 6.25619 8.50883
2156 1 26.0921 7.13497 8.35942
2456 1 26.542 7.10907 7.18636
2086 1 26.2017 6.19463 8.17896
2154 1 27.9449 6.63817 7.26415
2153 1 27.1723 6.54484 7.82004
2463 1 29.7144 5.81631 8.21854
2475 1 28.7733 6.2669 7.5569
221 1 0.886077 7.74976 7.26576
311 1 0.516854 8.04046 8.15869
161 1 1.55019 7.78162 8.05774
318 1 3.86377 8.08172 7.67013
539 1 3.43163 7.21281 8.36269
317 1 2.95223 8.13678 7.79375
612 1 4.80487 7.58357 7.23957
619 1 4.46713 7.30173 8.25649
298 1 4.84174 8.39334 7.87623
297 1 5.75823 8.04774 7.70119
876 1 6.93413 7.76902 8.04188
614 1 7.76845 8.20762 7.4945
948 1 8.2845 8.22152 8.31058
875 1 7.70475 7.28668 7.77857
929 1 8.69518 7.22405 8.23071
692 1 9.37824 7.8975 7.63861
691 1 10.2127 7.57238 7.68263
942 1 11.273 8.39129 8.18864
869 1 10.8806 7.43371 8.4343
1244 1 12.0292 8.38991 7.22011
870 1 11.7307 7.5311 8.09479
1274 1 12.7834 7.84637 7.69724
1179 1 13.4842 8.54005 7.43788
1165 1 14.9586 8.2378 7.62272
1344 1 15.4032 7.16332 7.54066
1343 1 15.9705 7.99246 7.55346
1584 1 16.6105 8.0517 8.43202
1824 1 17.958 7.56182 7.27442
1510 1 17.2174 7.24906 7.92477
1587 1 17.1572 8.22499 7.29523
1910 1 18.7316 8.2371 7.91225
1832 1 19.3063 7.30182 8.12793
2147 1 21.2986 7.61152 7.82077
1828 1 20.0812 7.99754 8.04409
1880 1 22.4872 7.50982 7.30328
2225 1 22.2703 8.19344 8.28256
1760 1 22.1611 7.14613 8.5702
2150 1 24.0289 7.75111 7.68182
2143 1 23.38 8.50605 8.31976
2142 1 25.4837 7.24082 7.16552
2221 1 24.9478 7.3938 8.17399
2227 1 25.8841 8.50079 7.80414
238 1 27.907 7.78506 7.33202
2299 1 27.3081 8.44145 7.83275
2300 1 28.0227 8.03062 8.3746
237 1 28.7937 7.56171 7.62588
2408 1 29.8209 7.20711 8.45615
312 1 29.8334 7.76813 7.54738
2289 1 0.474391 9.64279 7.96892
2290 1 1.42249 9.88854 7.84462
63 1 2.67223 9.82447 8.01577
2526 1 1.57601 8.71789 7.66656
55 1 3.52631 9.25786 7.91752
387 1 4.31617 9.79806 7.30485
379 1 5.53756 9.15438 7.68246
629 1 4.68141 9.72285 8.38648
380 1 6.42002 9.5932 7.83255
626 1 7.32261 8.91059 8.27187
613 1 7.46009 9.11867 7.17049
687 1 8.42084 9.22015 7.77898
947 1 9.06132 8.6996 8.51803
688 1 9.39979 9.0852 7.6235
1243 1 11.2599 8.99097 7.26537
700 1 10.2102 9.86013 7.55499
941 1 10.47 8.76839 7.83602
1567 1 12.473 9.43316 7.60674
1004 1 11.7118 9.90092 8.23242
1273 1 12.5681 8.59346 8.33424
1180 1 13.3741 9.31463 8.1457
1321 1 14.428 9.7401 7.4976
1594 1 15.0699 9.67465 8.46593
1593 1 15.4622 8.80406 8.43107
1342 1 16.2806 9.00487 7.77282
1341 1 16.4655 9.89213 7.49822
1912 1 17.4872 8.68815 8.16252
1350 1 17.4381 9.70395 7.98583
1911 1 17.9975 8.93405 7.42346
1892 1 18.9617 9.82607 7.79151
1604 1 19.5871 8.87072 7.9041
2148 1 21.0879 8.58468 7.75937
1900 1 20.1921 9.79864 7.61809
2229 1 21.1133 9.79308 8.13414
1876 1 21.786 9.3021 7.27463
2232 1 22.2206 9.36084 8.26322
2231 1 22.8679 9.12461 7.52087
2205 1 24.1527 9.01624 7.82633
2206 1 25.0224 8.96473 8.24557
2215 1 26.8555 9.95416 7.82668
2484 1 25.868 9.68696 8.14581
2487 1 27.8423 9.40712 7.75241
2284 1 29.4516 9.65267 7.51777
2488 1 28.6775 9.52745 8.23336
2524 1 28.6524 8.67664 7.48812
2523 1 29.4681 8.66733 8.01018
3 1 0.567477 0.545 9.77067
65 1 0.941333 0.156715 8.83083
306 1 1.48983 0.955899 9.47972
11 1 2.45411 0.85128 9.60744
64 1 2.16845 0.0658546 8.82319
73 1 2.94048 0.934045 8.74064
639 1 3.47358 0.670846 9.97974
6 1 3.73461 0.105433 8.84282
77 1 4.0882 1.3663 9.46416
606 1 4.66308 0.804912 8.73429
386 1 5.44309 0.923735 9.44162
385 1 5.61759 0.231942 8.87931
712 1 7.14143 1.33916 8.80568
384 1 6.49957 0.886722 9.85892
389 1 7.2009 0.129116 9.09034
926 1 8.16629 0.0568119 9.47786
715 1 8.99829 0.656165 9.3193
1025 1 10.9261 0.942755 9.16875
1038 1 10.343 0.181096 9.83203
1026 1 11.234 0.00477092 9.16979
1262 1 11.8279 0.737253 8.79644
1592 1 13.081 0.725289 8.76534
1355 1 14.0004 0.66935 9.31585
966 1 13.0653 0.159728 9.72496
1030 1 12.9519 1.27869 9.93064
963 1 15.6987 0.563937 9.4797
1338 1 14.8903 0.65886 8.61378
964 1 15.0391 1.20418 9.49698
1577 1 16.0476 0.694328 8.62831
1357 1 16.7568 0.33763 9.48675
1329 1 18.0892 1.04055 8.6766
1330 1 17.2413 0.623907 8.58308
1358 1 17.7133 0.500317 9.63679
1758 1 19.3332 0.58422 9.00752
1618 1 18.7274 1.04592 9.867
1676 1 20.3369 0.687007 9.62641
1651 1 21.0755 0.480098 8.91104
1901 1 22.4924 1.14804 9.64921
2092 1 22.163 0.216417 9.13683
2238 1 23.1967 0.686787 8.58497
1915 1 22.8646 0.0927839 9.91326
2237 1 23.6024 0.809332 9.46023
1991 1 24.5919 0.968754 9.65225
1999 1 25.134 0.202338 9.20848
1989 1 25.3286 1.33685 8.63096
1935 1 26.1543 0.445197 9.7808
2483 1 26.4856 0.0142061 8.77415
2321 1 27.5146 1.04923 9.30814
2481 1 28.4206 0.984521 8.92714
2270 1 28.6008 0.882393 9.92104
2269 1 29.5407 0.950752 9.61611
2306 1 29.7678 0.0989691 8.81096
2482 1 28.7518 0.0794856 9.13507
157 1 1.37059 2.45902 8.99148
305 1 0.649269 1.49483 9.25355
478 1 2.2558 2.75377 9.30555
80 1 3.79189 2.47238 8.62405
395 1 3.01957 1.81126 9.51528
396 1 3.44782 2.66298 9.62846
454 1 5.09126 2.01201 8.61167
465 1 5.13002 1.82106 9.82521
472 1 4.61749 2.50389 9.3545
451 1 5.82807 2.5458 9.10267
383 1 6.21637 1.65812 9.33187
711 1 7.98205 1.4466 9.23532
950 1 7.42255 2.22237 9.76956
768 1 7.94906 2.76873 8.9968
713 1 9.26099 1.90147 9.25849
695 1 10.2639 1.71075 9.17219
1267 1 11.6814 1.66449 9.35826
1036 1 12.0972 2.49006 9.85153
1035 1 11.6005 2.72598 9.03107
1102 1 13.9474 2.40942 8.79771
1101 1 13.144 1.98384 9.0936
1340 1 13.9624 1.72288 9.66631
1044 1 13.0415 2.84974 9.87324
1339 1 14.649 2.34443 9.64775
1363 1 15.6519 2.5449 9.97819
1432 1 16.8529 1.50163 9.16483
1364 1 15.7749 1.93471 9.25754
1302 1 16.5341 2.56008 9.16195
1367 1 17.6036 2.53581 9.79153
1368 1 17.878 1.60193 9.52385
1431 1 17.3566 2.0912 8.58789
1285 1 18.5473 2.2893 8.6902
1757 1 19.2079 1.55443 9.0228
1606 1 19.8211 1.55255 9.73586
1286 1 18.5915 2.55998 9.58898
1610 1 19.5135 2.64503 8.89761
1605 1 20.4311 1.59557 9.00954
1696 1 20.4242 2.61001 9.89255
1699 1 21.0472 2.50347 8.85833
1693 1 21.6064 1.66186 8.96566
1995 1 22.4728 2.73298 9.21256
2055 1 23.2299 1.66747 8.92937
1902 1 22.8604 2.05241 9.82623
2069 1 23.3768 2.63845 8.85132
1992 1 24.0115 1.73723 9.84817
1982 1 24.9049 2.44442 9.14946
2008 1 25.5804 1.47949 9.92626
2080 1 26.7401 1.91404 9.2002
2079 1 25.9224 2.41673 9.49766
2322 1 27.6121 1.79778 9.83138
2390 1 27.6157 2.74248 9.28787
2243 1 28.5683 1.90879 9.56811
2249 1 29.6955 1.71415 8.81595
2250 1 29.745 2.52858 9.30561
158 1 0.795438 3.01572 9.6349
90 1 0.816514 3.55442 8.70887
132 1 0.030912 3.98154 9.03565
89 1 1.61825 3.54261 9.22231
416 1 2.5961 3.71547 9.5026
545 1 3.92723 3.55463 9.30408
471 1 4.99386 3.0735 8.65819
546 1 4.61145 4.11549 9.01053
543 1 5.35387 3.51978 9.54046
377 1 6.32229 4.03554 9.21603
468 1 6.60336 3.09932 9.61721
531 1 7.65196 3.77221 8.71727
786 1 7.43946 3.66331 9.94971
798 1 8.49471 3.48435 9.86881
1115 1 9.30915 3.31155 9.1304
1005 1 10.2633 2.9498 9.40754
1110 1 10.485 3.721 8.72905
855 1 10.5917 4.06243 9.69848
1058 1 12.0992 3.51388 9.6911
1019 1 12.4741 3.88252 8.63258
1047 1 13.0149 4.02329 9.59799
1031 1 14.0637 4.15767 9.00343
1032 1 13.5501 3.41495 8.69695
1051 1 14.0437 3.36771 9.85335
1437 1 15.1637 3.77212 9.8059
961 1 14.7193 3.28346 8.96917
1377 1 15.7813 3.20767 9.12352
1835 1 16.3039 4.09278 9.56981
1435 1 16.5364 4.02485 8.57339
1295 1 17.7673 3.67986 9.75476
1301 1 17.2757 3.11055 9.0592
1296 1 18.6924 3.55757 9.92322
1294 1 19.6863 3.52047 9.4767
1609 1 18.8062 3.32354 8.81087
1695 1 20.7529 3.58125 9.84553
2067 1 21.6679 4.12989 9.98552
2068 1 21.7055 3.57575 9.29504
1940 1 22.6433 3.68064 9.60994
2070 1 23.6692 2.94887 9.6579
2088 1 23.7132 4.0343 9.52587
2077 1 25.1926 3.44732 8.57842
2012 1 24.6703 3.6789 9.68547
2387 1 25.6997 3.72636 9.43943
2388 1 26.2113 3.50911 8.71079
2389 1 26.8275 3.25596 9.61521
2394 1 28.1245 3.69238 8.85765
131 1 29.2499 3.58857 8.87308
71 1 1.101 4.72324 9.05655
2464 1 0.181261 5.60985 9.0963
83 1 1.30232 5.42359 9.87773
2396 1 1.88995 4.67023 9.71303
226 1 2.80286 5.27529 9.60464
406 1 2.96355 4.48383 8.69619
135 1 2.96071 5.54574 8.59204
485 1 3.40748 4.38994 9.78078
551 1 4.00176 5.1724 9.26964
530 1 5.43783 4.6447 9.50299
529 1 6.15127 5.20611 9.29611
785 1 7.55847 4.4761 9.59025
532 1 7.91495 4.70359 8.62423
790 1 8.44371 5.453 9.09841
776 1 9.67253 4.2982 8.96458
795 1 8.69168 4.34737 9.47924
789 1 9.40421 5.42653 9.37027
775 1 9.92606 5.1839 8.58189
856 1 10.5518 5.01754 9.47953
1109 1 11.1003 4.51253 8.68848
1129 1 11.5498 4.68443 9.72377
1199 1 12.3296 5.53343 9.88289
788 1 11.5882 5.64624 8.87818
1130 1 12.3084 4.9057 9.20205
1111 1 13.5429 5.43297 9.01256
1112 1 13.717 4.90793 9.78047
1446 1 15.6138 5.38571 9.77454
1445 1 15.3043 4.71036 9.19759
1362 1 16.5098 5.07004 9.05562
1520 1 17.5684 5.31046 9.33506
1836 1 17.1991 4.33299 9.27572
1433 1 18.2323 4.75668 9.89853
1434 1 18.1779 4.34824 9.0174
1845 1 19.9884 5.49958 9.65868
1283 1 19.1058 4.53991 9.22212
1379 1 18.7309 5.66114 9.50155
1763 1 21.1356 5.36741 9.89878
1370 1 20.0286 5.06846 8.72145
1369 1 20.5318 4.46181 9.27905
1939 1 22.4288 4.36279 8.9922
1834 1 22.1345 5.05526 9.77339
1833 1 21.5219 4.79535 9.04099
2145 1 22.6285 5.44987 8.88848
2094 1 23.8711 4.79368 8.70407
1761 1 23.2311 4.7986 9.96373
2146 1 23.4728 5.67439 9.16989
2087 1 24.2815 4.79172 9.67093
2078 1 24.9396 4.32817 8.92979
2001 1 25.557 4.66096 9.81484
2151 1 24.7269 5.40789 8.9499
2329 1 26.822 4.66557 9.45864
2003 1 26.0172 4.61073 8.80679
2330 1 27.8 4.44547 9.522
2467 1 27.5759 5.11853 8.7212
2468 1 28.2558 5.47796 9.26067
86 1 29.3895 5.03606 9.65787
85 1 29.5304 4.89502 8.65402
2404 1 0.834358 6.50307 9.63014
230 1 1.83083 6.97412 9.33536
173 1 1.81451 5.93959 9.12326
225 1 2.60303 6.25667 9.71182
552 1 3.59625 6.03349 9.49215
520 1 4.07064 6.91901 9.14915
632 1 3.37661 7.05554 9.85455
536 1 5.17949 6.6025 8.8957
627 1 5.16057 5.76494 9.65486
954 1 6.16697 7.06834 8.73373
871 1 6.82096 6.22999 9.5316
872 1 5.89006 6.46989 9.65678
538 1 7.77899 6.69705 9.57691
930 1 8.3985 6.42479 8.63419
474 1 7.78133 5.72556 9.92116
559 1 7.44978 5.74954 8.891
554 1 9.1738 6.53508 9.47822
842 1 10.7066 6.2952 8.87191
841 1 10.2941 5.99973 9.73383
1276 1 10.2785 7.05159 9.42189
866 1 11.8398 6.59089 9.2067
865 1 12.6075 6.12049 8.74766
1196 1 13.3512 5.85737 9.98553
1194 1 13.6401 6.46895 8.76497
1530 1 14.1175 7.03298 9.67755
1195 1 13.1464 6.73082 9.58039
1596 1 15.3653 7.04092 9.3615
1120 1 14.5718 5.78244 9.05943
1046 1 16.3534 6.82641 9.40173
1045 1 16.7619 6.10277 8.97559
1830 1 17.8868 6.38666 9.38234
1852 1 18.9123 6.49459 8.94474
1846 1 19.9918 6.49443 9.4831
2084 1 20.9885 5.88286 8.59292
1810 1 21.1517 7.04831 8.84872
1817 1 21.8846 5.99363 9.41665
1818 1 22.6722 5.8602 9.95612
1759 1 22.5524 6.86371 9.40827
1813 1 22.9258 6.50256 8.57498
2132 1 24.0903 7.06063 8.59568
2131 1 23.695 6.70929 9.37553
2182 1 24.5633 6.0442 9.98775
2421 1 25.6712 5.78135 9.92476
2157 1 24.5581 7.13214 9.69868
2416 1 26.665 5.93178 9.86384
2155 1 26.2463 6.56744 9.13024
2085 1 27.045 5.97411 8.6421
2406 1 27.018 6.91845 9.96275
2470 1 28.0617 6.4563 8.74497
2469 1 29.0267 6.26591 8.8381
2494 1 28.7586 6.87724 9.63137
2478 1 29.8705 7.10627 9.51544
2477 1 0.668133 7.33469 9.00917
249 1 0.51787 8.20376 9.5138
250 1 1.32194 7.77103 9.78142
162 1 2.08663 8.30713 8.70107
229 1 2.45749 7.30828 8.66288
234 1 2.30209 8.19648 9.87722
310 1 3.11554 8.00578 9.21553
631 1 3.97149 7.78156 9.9208
620 1 4.10444 7.94167 8.93339
541 1 5.04031 7.45029 9.62652
601 1 5.36912 7.8898 8.68559
542 1 4.79676 8.36567 9.53924
953 1 6.26815 8.05252 8.81859
558 1 6.79131 7.45001 9.47779
557 1 7.08598 8.3313 9.18965
397 1 5.84975 8.52092 9.6241
537 1 7.5103 7.17043 8.76001
959 1 8.04334 8.18783 9.45333
960 1 8.50989 7.34255 9.39241
937 1 9.46033 7.7117 9.25441
882 1 11.0116 7.79177 9.39048
881 1 10.3372 8.15523 8.84989
1033 1 12.2604 7.5911 9.62991
1034 1 12.6169 8.46157 9.67467
1188 1 13.2293 7.67915 8.93841
1516 1 14.1078 8.08421 9.43279
1595 1 15.6375 7.4789 8.61918
1254 1 14.4984 7.41557 8.72297
1586 1 15.2972 8.13199 9.32246
1597 1 16.6012 7.86476 9.55326
1503 1 17.5861 7.60485 9.41426
1909 1 18.4808 7.68424 8.59769
1504 1 17.6198 8.54861 9.40961
1514 1 19.1787 7.29816 9.581
1908 1 18.6537 8.25037 9.66702
1822 1 19.5018 7.97218 8.89256
1821 1 20.3479 7.58054 9.28457
1842 1 21.8908 7.46671 9.9152
2226 1 21.6153 8.31899 8.99837
2239 1 22.8765 7.89669 9.87978
2144 1 23.0468 7.73043 8.82497
2081 1 23.786 8.26488 9.48112
2222 1 24.5714 8.18846 8.688
2158 1 25.3645 7.46741 9.19484
2492 1 26.923 8.18826 8.75685
2405 1 26.4994 7.51724 9.36354
2228 1 25.9228 8.33167 8.71074
2490 1 26.0082 8.56162 9.96793
320 1 27.769 7.4344 9.50157
2485 1 28.7144 7.24217 8.58663
2486 1 28.8131 7.86277 9.28806
2407 1 29.7047 8.07029 8.81476
2480 1 0.264832 8.89106 8.77151
314 1 1.53831 9.85486 9.70104
313 1 1.46765 9.05271 9.20801
233 1 2.4818 9.10967 9.73036
56 1 2.99806 9.09746 8.72065
392 1 4.1808 9.66287 9.74796
5 1 3.05968 9.95124 9.4968
309 1 3.64466 8.70922 9.51477
602 1 5.56608 8.87311 8.64036
630 1 4.32744 8.9341 8.77518
327 1 5.15803 9.4498 9.54686
328 1 6.08588 9.63098 9.71207
561 1 6.5587 9.14449 8.83402
562 1 6.96757 9.2002 9.66635
625 1 7.77824 9.21564 9.01541
925 1 8.68849 9.73009 8.75994
716 1 9.40469 9.9027 9.43647
938 1 9.60186 8.68616 9.41449
893 1 8.64669 9.086 9.6043
934 1 10.342 9.57689 8.81005
1037 1 10.2267 9.27887 9.97327
1003 1 12.5733 9.82326 8.65941
1272 1 11.6283 9.04637 9.06312
1590 1 13.5879 8.97547 9.15112
1515 1 14.4927 8.83952 8.92753
1351 1 14.7801 9.78734 9.48902
1352 1 15.548 9.28085 9.55049
1523 1 16.6721 9.22258 9.81395
1583 1 16.4246 8.85514 8.95622
1578 1 16.525 9.86309 8.66278
1546 1 18.4079 9.57629 9.68307
1674 1 18.3196 9.99064 8.69421
1907 1 18.5296 8.70465 8.80194
1673 1 17.5428 9.55596 9.03035
1602 1 19.5937 8.85742 9.4262
1601 1 19.1622 9.4882 8.84864
1827 1 20.3953 8.653 8.62688
2230 1 21.3096 9.28733 8.97676
1680 1 20.7312 9.78635 9.75776
1679 1 20.2557 9.67799 8.93135
2091 1 21.7906 9.69783 9.82479
1929 1 23.8545 9.60537 9.76514
2082 1 22.9965 8.83598 9.57113
2212 1 23.2872 9.75818 8.95112
2211 1 24.2458 9.48212 8.78116
2000 1 25.6255 9.43304 9.26883
1928 1 26.5958 9.26317 9.57407
2491 1 26.9328 9.09997 8.57987
2320 1 27.5005 9.96239 9.70001
244 1 27.7023 9.99137 8.70326
243 1 27.9045 9.10644 8.90389
2479 1 29.3994 9.08945 8.90108
2418 1 29.1345 8.92402 9.92692
247 1 29.766 9.7111 9.79544
ITEM: TIMESTEP
10000
ITEM: NUMBER OF ATOMS
2532
ITEM: BOX BOUNDS pp pp pp
0.0000000000000000e+00 3.0000000000000000e+01
0.0000000000000000e+00 1.0000000000000000e+01
0.0000000000000000e+00 1.0000000000000000e+01
ITEM: ATOMS id type x y z
4 1 0.920956 0.2429 0.581955
7 1 2.20157 1.08536 1.36107
8 1 1.96332 0.705689 0.490619
403 1 4.20049 1.27516 0.912194
640 1 3.17228 0.495239 0.894141
376 1 4.29265 0.12474 0.817608
461 1 5.32725 0.130897 0.796728
404 1 5.13263 1.26594 0.804713
375 1 4.75573 0.539834 0.0877421
944 1 6.53355 0.177301 0.546187
705 1 6.65056 1.17028 0.91475
706 1 7.41049 0.588236 1.15481
949 1 7.48803 1.38005 0.185131
943 1 7.36774 0.319626 0.0566959
720 1 8.37566 0.858413 0.495818
719 1 9.20901 0.380639 0.413144
1039 1 9.71977 1.21452 0.0113553
1040 1 10.6684 1.3078 0.152929
890 1 10.1557 0.805425 0.996683
1209 1 11.5877 0.223273 0.172211
974 1 12.1223 1.08437 0.464356
662 1 11.6714 0.531578 1.36851
973 1 12.0882 1.39865 1.36273
965 1 13.4331 0.341111 0.593619
1029 1 13.0945 1.25196 0.879213
1289 1 14.1108 0.969232 1.39705
1356 1 14.3765 0.550444 0.21903
1211 1 15.1606 0.0470112 1.07713
1282 1 15.8071 0.944705 0.591157
1543 1 17.1795 1.07749 0.298736
1298 1 17.6942 1.26793 1.25001
1617 1 18.2294 0.695245 0.652348
1544 1 17.3298 0.135003 0.517862
1843 1 19.2481 0.131842 0.146407
1613 1 19.2863 0.424957 1.14334
1614 1 19.3744 1.3405 1.10314
2065 1 20.2731 0.52403 0.70875
2066 1 21.1492 0.060446 0.685784
1675 1 21.0073 1.12348 0.241233
1916 1 22.3268 0.248764 0.704744
1612 1 21.5258 1.24052 1.23739
2009 1 23.2435 1.06201 0.404799
2236 1 23.954 0.549306 1.01166
2235 1 24.5784 1.31382 0.935537
1988 1 25.4645 0.867309 0.714828
1987 1 26.396 0.670564 0.980175
1936 1 26.8386 1.06345 0.13813
2496 1 27.6538 0.697139 0.649448
2495 1 28.2165 0.087288 1.22455
2246 1 29.4209 1.21432 0.5292
2245 1 28.7313 1.38801 1.17267
2265 1 29.1713 0.211125 0.558599
91 1 0.677452 2.08088 0.203827
12 1 2.13241 1.56499 0.0161746
14 1 1.51265 1.6919 1.06149
13 1 1.9455 2.55602 1.03936
477 1 2.52898 2.60166 0.228985
96 1 3.0963 2.51444 1.15772
330 1 4.28556 2.26727 1.14755
95 1 3.01623 1.6308 0.763675
78 1 4.09944 2.03582 0.18992
475 1 5.61278 2.28542 1.07241
466 1 5.09486 2.71118 0.265629
476 1 6.02962 1.92196 0.324387
651 1 6.75267 2.54081 0.796357
718 1 8.3922 2.69388 0.525547
731 1 8.00569 1.65143 1.06639
717 1 9.00554 2.16159 1.06225
733 1 9.68829 2.41101 0.0766313
714 1 8.80169 1.80531 0.0354551
800 1 10.7294 2.71237 0.566941
664 1 10.5827 1.76046 1.19598
969 1 12.5519 2.03461 0.63682
970 1 11.6128 2.089 0.699123
647 1 14.0331 1.9637 0.708412
1281 1 14.9661 1.43631 0.516221
1307 1 16.4236 1.92127 0.176055
1297 1 16.731 1.67253 1.26866
1308 1 15.7959 2.14199 0.877399
1461 1 16.7372 2.64578 0.872427
1387 1 18.5402 1.75157 0.582153
1388 1 17.7213 2.21315 0.784669
1384 1 19.1819 2.607 1.14467
1621 1 20.2336 1.81109 0.629645
1616 1 21.1963 2.48328 0.963709
1703 1 21.6035 1.93275 0.0676201
1704 1 22.2583 1.52837 0.656227
2010 1 23.4776 1.44279 1.22181
1678 1 24.0406 2.34429 0.781885
1934 1 22.9797 2.57725 0.679224
1677 1 24.6691 2.65207 1.37593
2007 1 25.6932 1.96405 0.773718
2023 1 24.8397 2.54431 0.120945
2253 1 26.6679 2.38629 0.324989
2254 1 27.0854 1.7419 0.915388
2248 1 28.0285 2.30889 0.677541
92 1 29.9238 2.65287 0.255721
16 1 29.734 2.04937 1.09815
2244 1 29.0769 2.14596 0.341641
2411 1 0.244093 4.11259 0.0813262
2395 1 1.23603 4.08695 0.110433
2397 1 0.855094 2.98649 0.782189
163 1 2.048 3.43629 0.467741
98 1 2.28779 3.4768 1.42156
415 1 3.13387 3.59927 0.363196
393 1 3.69835 3.37024 1.34097
394 1 4.00185 3.02032 0.445131
329 1 4.71668 3.01666 1.40479
544 1 4.97859 3.66575 0.456172
459 1 5.88878 4.2631 0.553609
417 1 6.01354 3.69308 1.38425
467 1 6.23032 3.32013 0.474768
722 1 7.76249 3.8237 1.35271
797 1 8.40077 4.17101 0.53141
734 1 9.70203 3.01372 0.913534
793 1 8.82163 3.42552 1.05111
859 1 9.54902 4.07696 0.166984
799 1 10.8381 3.65605 0.723116
1057 1 12.2987 3.98508 0.55662
740 1 12.075 3.2064 1.34699
1043 1 13.1929 2.9815 0.797226
1053 1 13.9468 3.59418 1.29111
1062 1 13.0552 4.02084 1.36053
1048 1 13.5244 4.17605 0.423222
1052 1 14.4839 2.91985 0.587162
1065 1 15.1611 4.0065 1.14723
1450 1 15.5747 3.11037 1.01501
1462 1 16.4196 3.24046 0.167882
1776 1 17.0745 3.90972 0.497551
1396 1 18.1561 3.17849 1.04504
1293 1 19.3956 2.93526 0.184696
1708 1 19.5245 3.8151 0.865075
1707 1 20.2984 3.22501 0.878495
1933 1 22.2393 3.04081 0.451279
1762 1 22.8013 4.05269 0.549382
1780 1 21.7067 3.54248 1.27461
2006 1 24.1359 3.35664 0.729943
2024 1 25.5933 2.94088 0.625721
2011 1 25.0174 4.01356 0.550822
2410 1 26.3431 4.07694 0.217528
2346 1 26.5591 3.28713 0.935405
2018 1 26.0311 4.2525 1.20956
2313 1 27.4623 3.20775 0.538457
2409 1 27.261 4.26686 0.480948
2314 1 28.1039 3.58146 0.0623796
2345 1 27.2344 3.69913 1.42654
2318 1 29.2125 4.15804 0.122081
2317 1 29.0215 3.59102 0.834876
2398 1 29.9609 3.08196 1.12394
2331 1 29.9618 4.11784 1.24296
2412 1 0.459472 5.02119 0.213377
88 1 1.168 5.00484 1.06344
164 1 2.38923 4.32138 0.70007
84 1 2.05741 5.4482 0.375957
156 1 3.18929 5.44886 0.549161
155 1 3.41967 4.53338 0.829917
481 1 4.27829 5.46443 0.494057
401 1 5.19831 4.76291 1.38316
628 1 5.46433 5.34849 0.422871
486 1 4.32882 4.36343 0.0722679
721 1 7.05217 4.36766 1.05294
549 1 6.52656 5.31456 1.32039
550 1 6.79408 5.44495 0.429602
460 1 6.69655 4.37391 0.122987
473 1 7.85376 5.06172 0.614133
867 1 8.81944 5.63849 1.21908
796 1 8.83958 5.00849 0.181382
802 1 11.2725 5.64564 0.153316
1186 1 10.6486 5.45414 0.996234
860 1 10.0821 4.80955 0.435317
1200 1 12.77 4.8561 0.349646
1221 1 11.7622 5.11488 0.877931
1114 1 13.7508 5.19446 1.0491
992 1 14.8625 5.05871 0.84774
1438 1 14.5751 4.36308 0.175927
1372 1 16.7503 4.93379 0.202173
991 1 15.8391 4.84353 0.835822
1452 1 16.9453 5.47905 1.1489
1451 1 17.0021 4.50104 1.24466
1519 1 17.5252 5.53356 0.212147
1775 1 17.8977 4.34025 0.840225
1380 1 18.9808 5.45761 0.407008
1698 1 19.8677 4.94739 1.10478
1697 1 20.1973 4.58379 0.330042
1691 1 21.1922 4.3663 1.01585
1692 1 20.906 5.25461 0.961244
2013 1 22.2359 4.60997 1.3061
1767 1 22.4351 5.65108 1.05522
2005 1 23.9314 4.31817 0.622741
2106 1 23.1736 4.99488 1.09733
2104 1 24.1639 4.9951 1.32555
2017 1 25.2275 4.74929 1.32493
2002 1 24.9453 5.19778 0.390779
2422 1 26.0243 5.28155 0.583811
2328 1 28.2547 4.37581 1.17544
2460 1 27.3432 4.76796 1.30669
2392 1 27.6387 5.43861 0.011453
2391 1 28.45 5.18617 0.395345
2332 1 29.6522 4.98197 0.880198
87 1 0.734329 5.82368 1.29223
2403 1 0.294975 6.25072 0.377124
152 1 0.727491 7.1043 0.463328
171 1 1.45994 6.31658 0.580538
175 1 2.46323 5.9852 1.14627
172 1 2.10658 6.90453 0.361562
176 1 3.11285 6.58293 0.666847
482 1 4.3155 6.41751 0.423368
487 1 5.39241 6.8319 0.647182
488 1 5.92981 6.14124 0.956042
563 1 6.75259 6.92434 0.464517
810 1 7.62667 6.48302 0.684725
868 1 8.62172 6.25429 0.482759
863 1 9.57652 5.82942 0.420707
806 1 9.23407 6.89259 1.25132
553 1 9.39222 6.92866 0.272496
864 1 10.2844 6.41686 0.698458
1123 1 10.9808 6.94884 1.16606
955 1 11.2903 6.81208 0.0582548
801 1 11.4613 6.15238 0.997838
956 1 12.2423 6.51864 0.272697
1143 1 13.0816 6.51451 1.1971
1529 1 13.9897 6.93647 0.589073
1113 1 14.1884 6.00367 1.25306
1119 1 14.6376 5.8831 0.0121211
1443 1 15.5128 5.93959 0.794556
1218 1 15.182 6.74932 0.380686
1131 1 14.9245 7.02713 1.33979
1444 1 16.3241 6.46541 0.813372
1371 1 16.5923 5.86896 0.00124241
1442 1 17.3896 6.58232 1.17378
1441 1 18.2333 6.18842 0.775018
1829 1 17.4826 6.76026 0.143723
1777 1 19.7256 6.00229 1.09235
1837 1 19.8659 7.07524 0.451058
1513 1 19.0895 6.46651 0.0283555
1840 1 21.2978 6.03299 1.39866
1839 1 21.2274 6.99659 1.14329
1764 1 20.5162 5.98595 0.39128
1841 1 21.6328 6.61761 0.280728
2105 1 23.4857 5.75111 0.45732
1849 1 23.0952 6.76323 0.870987
2096 1 24.2406 6.13289 1.24361
2181 1 25.0991 6.56426 0.720463
2415 1 27.0737 6.21827 0.676198
2185 1 25.9499 7.11742 0.195422
2186 1 26.1096 6.6477 1.00286
2401 1 28.0156 5.77239 1.30759
2423 1 27.6914 7.02373 0.759855
2493 1 28.1381 6.33246 0.0480876
177 1 28.746 6.61519 0.795408
2473 1 29.4165 5.96864 0.922978
2474 1 29.0977 6.04195 0.0190217
178 1 29.5733 7.01169 0.530682
151 1 1.23231 7.42227 1.2124
2504 1 0.708497 8.15765 0.501593
242 1 1.40601 8.4348 1.16918
246 1 2.21031 7.87342 0.822078
634 1 3.12287 8.44044 0.40536
633 1 3.25422 7.56071 0.898494
257 1 4.44949 7.32871 0.803938
258 1 4.28661 8.05211 1.42412
638 1 5.22064 8.25499 0.513505
398 1 6.03733 7.68084 0.0778177
381 1 6.92645 8.30025 0.176676
564 1 6.61207 7.7201 0.914113
958 1 8.37371 7.2508 0.78813
957 1 7.63955 7.54835 0.148706
657 1 7.81256 8.14066 0.929425
809 1 7.44798 7.24486 1.26196
902 1 9.38805 7.83668 1.09944
894 1 8.90141 8.20901 0.0631655
952 1 10.5179 7.99536 1.23091
1275 1 10.2358 7.80453 0.0537021
1280 1 11.5628 7.71177 0.639793
1279 1 11.5348 8.55893 1.07525
1354 1 13.0256 7.87271 0.737393
1353 1 13.9241 8.23598 0.846515
1217 1 14.8452 7.63317 0.442797
1232 1 14.8636 8.28901 1.33527
1521 1 15.8638 7.5493 1.09577
1598 1 16.7064 7.32776 0.348993
1525 1 16.5638 8.30301 1.06701
1585 1 15.8058 8.04536 0.0344021
1447 1 18.3925 7.37538 0.280266
1448 1 18.1286 7.28777 1.23779
1599 1 18.4719 8.18904 1.34457
1528 1 17.8709 8.25039 0.429111
1600 1 19.1828 8.03571 0.740358
1913 1 20.4451 7.81617 1.14471
1917 1 20.1017 8.20269 0.224061
1838 1 20.7879 7.21415 0.127751
1766 1 21.5587 8.23849 1.09642
1765 1 21.9981 8.43971 0.238578
1850 1 22.9289 7.5513 1.33369
2240 1 23.686 7.52515 0.127256
2159 1 23.6339 8.46204 0.645688
2160 1 24.3421 7.85739 0.870421
2163 1 25.1365 8.06327 0.164002
2315 1 25.8121 7.7836 1.23027
2489 1 26.4783 8.0104 0.590036
2424 1 26.9055 7.28067 1.25758
272 1 27.5958 8.01165 1.03278
267 1 28.394 8.00353 0.214618
319 1 27.2827 8.16594 0.00125054
268 1 28.9945 7.81163 1.03401
2503 1 29.9907 8.10141 1.07359
2417 1 29.55 8.11902 0.159967
240 1 0.0295444 9.88971 1.18265
241 1 0.616462 8.99122 1.05901
248 1 0.59796 9.32714 0.0350132
9 1 2.67531 9.62894 0.502343
245 1 2.29249 8.76394 1.08687
322 1 1.57374 9.50562 0.816347
321 1 1.50656 8.79799 0.215471
10 1 3.23611 9.27855 1.1725
462 1 5.6352 9.23487 0.999502
391 1 4.51619 9.09359 0.360495
573 1 4.35816 9.34205 1.36362
382 1 6.6099 9.09707 0.630609
891 1 7.52048 9.21592 1.06777
658 1 8.38166 8.7878 1.41346
650 1 8.5148 9.63279 0.721287
892 1 7.91869 8.89455 0.220921
649 1 9.22012 9.05264 0.435687
883 1 9.83617 9.77632 1.08981
1210 1 10.9838 9.74091 0.724635
951 1 10.4061 8.88465 0.985688
1203 1 12.8538 8.8191 0.881911
1259 1 12.2477 9.73712 1.0435
1260 1 12.2289 9.42505 0.154397
1271 1 11.435 8.6245 0.00744192
1204 1 13.6089 9.24403 1.33534
1589 1 13.7218 9.25543 0.056152
1347 1 15.3951 9.11101 0.659643
1348 1 14.6712 8.67398 0.188742
1212 1 14.489 9.48554 0.767329
1524 1 16.2902 9.94762 0.353018
1291 1 16.9809 9.61236 1.39138
1527 1 17.628 9.12672 0.184609
1844 1 19.8364 9.46251 0.415508
1545 1 18.7899 9.03922 0.378214
1847 1 19.063 9.44691 1.32229
1918 1 20.8534 8.85554 0.303456
1914 1 20.1014 8.71442 1.07694
2234 1 21.8457 9.29857 1.14887
2233 1 22.6515 9.29973 0.484588
1857 1 22.8493 9.83743 1.3818
1930 1 23.7293 9.44366 0.734098
1942 1 24.9717 9.78643 0.0428837
2164 1 24.5442 8.8288 0.279486
2316 1 25.6192 8.72709 1.06754
2319 1 26.9049 9.95814 0.418349
1927 1 26.7424 9.01372 0.575812
1941 1 25.7296 9.71866 0.666153
271 1 27.9561 8.92926 0.788357
2266 1 28.3567 9.91983 0.162935
239 1 29.7057 9.11098 0.833549
256 1 0.677253 0.461589 1.71929
119 1 0.692168 1.33647 2.10438
120 1 1.65467 1.08911 2.29835
19 1 1.63719 0.152515 1.70742
574 1 3.86666 0.120996 1.75447
266 1 3.00238 0.517262 2.35276
399 1 5.07251 0.022669 1.83753
412 1 5.63534 1.03903 2.45162
346 1 4.78366 1.05167 1.83743
400 1 6.00268 0.327812 1.55452
337 1 6.83307 0.927904 2.13348
578 1 6.29756 0.240786 2.61889
646 1 8.37814 0.75802 1.56093
568 1 7.72893 0.417418 2.39268
900 1 8.89918 0.372347 2.55972
741 1 9.74651 0.510295 2.12365
645 1 9.09497 1.37398 1.74889
661 1 11.2296 1.22146 1.84352
889 1 10.6861 0.264101 1.55697
655 1 10.625 0.595053 2.59204
987 1 11.5627 0.356806 2.31974
976 1 12.5403 0.763322 2.00593
967 1 13.9598 0.247218 2.31956
1288 1 14.9345 0.5788 1.92107
1287 1 15.7351 1.1157 1.69485
1555 1 16.5995 0.979613 2.32306
1565 1 16.9095 0.0372189 2.42815
1292 1 16.2858 0.184809 1.56467
1566 1 17.5123 0.33297 1.77033
1607 1 19.5012 0.925596 2.16397
1608 1 18.5772 1.19676 1.90442
1626 1 20.119 0.201607 1.65022
1611 1 21.1537 0.922463 2.03528
1622 1 20.3866 1.33507 1.45476
1882 1 20.3518 0.378226 2.76164
1858 1 22.2531 0.425215 1.83858
2172 1 23.2403 0.672362 2.01603
2171 1 23.9396 0.0579653 2.20041
2184 1 23.0404 0.0351176 2.84339
2161 1 24.5508 0.733382 1.80603
2019 1 25.6206 0.227609 1.82656
2020 1 25.3172 0.642289 2.60776
2261 1 26.7391 1.30296 1.82568
2262 1 25.8376 1.19987 1.64496
2271 1 26.9818 0.0946763 2.40039
2272 1 26.1069 0.00578153 2.82375
2333 1 26.4495 0.912318 2.76389
2349 1 27.7528 1.34077 1.5074
2350 1 27.8727 0.80727 2.32609
255 1 29.9035 0.960874 1.52553
288 1 29.1274 0.844677 2.32311
28 1 0.717588 2.27759 1.59888
2260 1 2.74564 1.93367 1.98938
37 1 1.76176 2.1494 2.29709
2259 1 3.58354 1.5885 1.77422
413 1 3.68093 2.52019 2.06969
345 1 5.00283 1.9164 1.80809
411 1 6.01027 1.45514 1.66718
333 1 5.82902 2.57737 2.00075
334 1 6.44261 2.53202 2.68659
652 1 6.93062 2.03835 1.56746
732 1 8.01064 2.50908 1.45081
816 1 7.66289 1.65409 2.32157
815 1 7.5589 2.59965 2.39591
659 1 8.58125 2.70551 2.38286
730 1 9.51525 2.42577 2.63524
779 1 11.3221 2.419 1.68097
729 1 10.1209 2.76779 1.94872
780 1 10.9219 2.05719 2.49991
663 1 10.0718 1.66018 2.01603
739 1 12.4728 2.34683 1.62054
908 1 12.1759 1.74911 2.56733
977 1 11.8135 2.72477 2.60306
648 1 13.7111 2.29062 1.52735
989 1 13.2781 1.77129 2.38104
990 1 14.1743 1.68065 2.75643
1067 1 12.8709 2.66054 2.78263
1050 1 13.8427 2.68953 2.44284
1290 1 14.5906 1.7843 1.5937
972 1 15.1944 1.62897 2.49826
971 1 15.3918 2.5082 2.57939
1299 1 16.2431 2.01048 2.34205
1455 1 16.9414 2.82396 1.92889
1300 1 16.9211 2.4542 2.8246
1556 1 17.3008 1.72161 2.07675
1395 1 18.0818 2.53174 1.77518
1306 1 19.0214 2.03697 2.43005
1632 1 20.0757 1.82315 2.42539
1706 1 21.0513 1.81753 2.84037
1615 1 21.0578 2.18941 1.85152
1303 1 20.2141 2.5058 1.67868
1374 1 22.0381 1.51264 2.46035
1937 1 21.911 2.54602 2.34397
1938 1 22.4181 2.29866 1.5826
1373 1 22.9686 1.63101 2.16871
1629 1 23.4684 2.68971 1.59086
2162 1 24.7661 1.59725 2.08677
1932 1 25.2709 2.48321 2.22109
2015 1 26.2268 2.28299 1.60217
2353 1 26.2023 2.69551 2.62842
2339 1 25.7223 1.73987 2.70988
2016 1 27.1617 2.5193 1.65541
2247 1 28.1531 2.25534 1.67335
2288 1 27.3352 1.83324 2.49099
15 1 29.3841 1.82485 1.96144
2342 1 28.7734 2.69768 2.38978
2341 1 29.0334 2.68766 1.43578
27 1 1.26458 3.02054 1.77535
2432 1 0.346303 4.12203 2.47035
105 1 2.84941 3.24395 2.57503
106 1 2.03378 3.7604 2.64857
97 1 2.97645 4.08098 1.79364
498 1 4.171 3.52458 2.35111
484 1 5.20619 2.86145 2.81131
402 1 5.06841 3.92903 1.806
332 1 5.93869 3.98861 2.85146
418 1 6.69889 3.06652 1.68748
746 1 7.9619 3.45496 2.55044
794 1 9.28042 4.225 1.48268
817 1 8.64201 4.22649 2.80364
660 1 9.29424 3.32744 2.09257
818 1 9.58916 4.25091 2.79504
723 1 10.265 3.76289 2.01794
744 1 10.8908 3.20365 2.57357
725 1 11.3248 3.9834 2.15775
1073 1 12.752 4.2517 2.31106
1049 1 13.997 3.62885 2.53958
1061 1 13.1484 3.21169 1.89971
1054 1 14.6928 3.15454 1.57124
1066 1 15.3353 3.76297 2.06027
1449 1 16.2564 3.55336 1.5012
1375 1 16.2844 3.35666 2.49327
1456 1 17.3345 3.58702 1.54803
1479 1 17.1495 4.16996 2.38489
1399 1 17.9895 3.3812 2.47115
1383 1 19.435 3.16106 1.88119
1459 1 19.4733 4.20347 1.81126
1386 1 19.3994 3.69558 2.83065
1460 1 20.3308 3.97027 1.52364
1304 1 20.5603 3.16225 2.3327
1874 1 22.8043 2.9543 2.74289
1779 1 21.4379 4.06005 2.03875
2034 1 22.8496 3.66407 1.87192
2033 1 22.27 3.84456 2.63007
2098 1 23.8046 3.89063 1.62581
2097 1 23.5822 3.99502 2.54389
1630 1 24.0717 2.94223 2.34681
2021 1 25.5479 3.37393 1.64312
2099 1 24.6989 4.07895 2.01378
2022 1 26.0024 3.94746 2.27196
2336 1 26.9573 3.7785 2.45862
2326 1 28.2827 3.47483 1.59406
2051 1 27.6727 2.96327 2.36274
2325 1 28.2211 3.77369 2.47859
2430 1 29.697 3.25702 2.10432
2429 1 29.1744 4.09648 2.10334
100 1 1.01454 4.86332 2.0894
99 1 0.113052 5.0553 1.86463
165 1 2.2466 4.78766 2.4951
166 1 2.3899 5.09652 1.56432
479 1 3.90828 4.71476 2.75052
507 1 4.12703 4.84461 1.75161
110 1 3.11004 5.41978 2.46289
508 1 4.67971 5.4351 2.25399
422 1 4.83027 4.40318 2.65644
635 1 5.72844 5.38206 2.06831
430 1 6.77553 5.19087 2.3445
636 1 6.02243 4.50836 1.94152
727 1 7.55284 5.34428 1.49929
429 1 7.42656 4.43208 2.22026
728 1 8.37703 4.81638 1.52534
807 1 9.85269 5.06984 1.83127
1136 1 9.13565 5.32158 2.65353
724 1 10.5835 4.45956 1.44588
1185 1 11.1888 5.52715 1.79282
808 1 10.5064 4.78393 2.46627
726 1 11.6572 4.69085 2.59616
1222 1 12.1575 5.13042 1.74404
1197 1 14.025 4.7874 2.65834
1198 1 14.246 4.63925 1.75521
1138 1 12.9105 5.64396 2.71171
1465 1 15.0679 5.27637 1.97055
1471 1 15.9532 5.61809 1.59313
1472 1 16.6357 5.29849 2.20852
1457 1 15.7871 4.85088 2.57642
1533 1 17.866 5.27138 1.52911
1534 1 17.5691 5.09564 2.32576
1470 1 18.5001 5.69335 2.63615
1469 1 19.1203 5.41572 1.9758
1728 1 18.6048 4.50501 2.16625
1711 1 21.1975 4.96777 1.85798
1393 1 20.342 4.72435 2.37239
2014 1 22.8032 4.65904 2.05994
1712 1 21.9892 5.39169 2.16842
2103 1 23.8653 4.99458 2.27503
2110 1 24.9876 5.07327 2.33363
2459 1 27.0628 5.25144 2.03398
2090 1 26.1105 5.709 1.55764
2109 1 25.9459 5.02483 2.48528
2327 1 28.1572 4.78877 2.00624
2402 1 28.8418 5.66518 1.87847
186 1 29.4131 4.84944 2.75852
170 1 0.446583 6.84106 1.47358
2425 1 1.28372 5.88089 2.19853
169 1 0.326898 6.26262 2.23364
2426 1 1.64397 6.53594 1.58181
168 1 2.60714 7.1259 1.6313
263 1 2.1878 6.31648 2.63398
182 1 3.71578 6.8594 1.48345
109 1 2.99161 6.24867 1.96109
181 1 3.98088 5.96206 1.42941
492 1 4.17378 6.50762 2.38708
493 1 5.24641 6.25839 1.73349
494 1 5.17461 6.33738 2.70673
491 1 4.73891 7.12248 1.86754
495 1 6.19721 6.97515 2.63476
496 1 6.43717 6.05525 2.59827
813 1 6.89829 6.3666 1.44735
874 1 8.39054 5.79926 2.14503
814 1 7.48333 6.27319 2.20146
873 1 8.23282 6.68705 1.70406
805 1 9.24085 6.24018 1.97349
862 1 10.3237 6.39933 1.81759
1278 1 11.3185 6.39729 2.14444
861 1 10.2617 6.85383 2.69897
1128 1 12.4379 6.67 2.09479
823 1 11.908 5.91785 2.80719
1144 1 13.2868 5.71637 1.76899
1127 1 13.3941 6.63581 2.33062
1466 1 15.1652 6.2372 1.98734
1215 1 14.391 6.96314 2.62316
1147 1 14.3143 5.82038 2.5954
1141 1 16.0543 6.634 2.12793
1482 1 17.1252 6.18944 2.39312
1772 1 17.4777 7.12908 2.12794
1771 1 18.0694 6.40388 1.8816
1484 1 19.0772 6.54137 1.83565
1770 1 19.7224 6.1308 2.54199
1483 1 18.9217 6.75472 2.76041
1769 1 20.5284 6.65829 2.58744
1778 1 20.3774 5.72443 1.76053
2032 1 22.7151 6.52741 2.44007
1784 1 22.1928 6.67988 1.49354
1783 1 21.6075 6.6957 2.27517
1768 1 23.1426 5.78944 1.74697
2166 1 23.5055 7.11531 2.57695
2165 1 23.9255 7.12452 1.70688
2089 1 25.4939 5.99094 2.26536
2095 1 24.3413 6.14958 2.27711
2420 1 26.2755 6.79771 2.01422
2419 1 27.1251 6.32647 1.82359
188 1 28.3696 6.79513 2.0898
2500 1 27.5612 6.85597 2.78665
2357 1 27.7765 5.84888 2.47712
187 1 29.2245 6.9144 1.66164
208 1 29.3967 5.94375 2.77057
251 1 1.24076 7.43993 2.3262
253 1 0.378139 7.91904 2.78569
259 1 0.570161 8.38162 1.85186
252 1 1.95289 7.86296 1.83792
264 1 2.36488 7.2151 2.64764
167 1 2.95115 7.90955 2.04849
576 1 3.92597 7.63919 2.51216
637 1 5.28549 8.37906 1.55244
489 1 5.69579 7.43778 1.64513
570 1 4.95615 7.66556 2.7745
579 1 6.51172 8.48369 1.48746
580 1 6.91231 7.76988 1.96818
490 1 5.85718 8.02979 2.40018
555 1 8.27314 7.77289 1.7933
820 1 7.62915 7.41368 2.63052
501 1 8.1862 8.20312 2.84542
556 1 8.83201 7.24844 2.44809
880 1 9.73747 7.42849 2.08314
879 1 10.4288 7.9394 2.46058
1124 1 11.2164 7.50741 1.84673
887 1 11.0765 8.50765 2.05441
1202 1 12.185 7.80566 1.67035
1270 1 11.6933 8.00918 2.73772
1151 1 12.7982 8.49689 2.8424
1201 1 13.1228 7.6529 1.85002
1132 1 14.0873 7.41846 1.6066
1126 1 13.9283 8.52296 1.96761
1231 1 14.9842 8.11867 2.28485
1522 1 16.7073 7.25532 1.45197
1360 1 15.9577 7.77347 2.10476
1453 1 16.923 7.91492 2.68
1526 1 17.3924 7.94568 1.49936
1551 1 18.0066 8.39738 2.63522
1532 1 19.8359 7.51811 2.07604
1552 1 18.6044 7.62826 2.33352
1531 1 20.1171 8.39118 2.36172
1854 1 20.9117 7.50701 2.05317
2173 1 21.9888 7.97659 2.10922
2174 1 22.8525 8.12144 2.37399
2170 1 24.1051 8.06693 1.95522
2101 1 25.0497 7.21269 2.81966
2501 1 25.1491 7.2044 1.79242
2502 1 25.0839 8.18134 1.93722
2258 1 26.8993 8.33211 1.88717
2257 1 26.0827 8.00574 2.26868
2510 1 27.7125 7.66906 2.10595
2434 1 27.1453 8.07831 2.84633
254 1 29.9074 7.53968 2.04297
2509 1 28.672 7.86672 2.15584
2356 1 29.0573 7.159 2.79276
22 1 0.889125 9.72847 2.77431
20 1 1.21892 9.37155 1.88158
23 1 2.19759 8.84178 2.02883
265 1 2.59591 9.67443 2.14285
17 1 3.47607 8.83561 2.1617
18 1 3.86009 9.55748 2.61581
572 1 4.61214 8.78957 2.31441
336 1 6.00056 9.36718 2.03357
335 1 6.89853 9.74227 1.8886
326 1 6.74398 8.59875 2.51583
325 1 7.58239 8.68803 2.04683
567 1 8.03049 9.59367 1.96264
884 1 8.98173 9.92013 1.60896
901 1 9.51867 8.70979 1.43334
896 1 9.02418 9.34042 2.54017
888 1 11.308 9.44369 1.73737
885 1 10.2244 9.36276 2.21421
1540 1 11.9799 9.42957 2.46984
1539 1 12.3335 8.86648 1.75207
975 1 12.9954 9.94829 1.86467
1125 1 13.5584 9.2823 2.38484
1318 1 15.0582 9.99504 2.70882
1538 1 14.6154 9.3782 1.89631
1537 1 14.4701 8.97607 2.76528
1359 1 15.7829 8.62181 1.67413
1865 1 17.0765 8.92393 2.29179
1569 1 15.9146 9.40228 2.35867
1866 1 17.8563 9.05658 1.732
1870 1 18.4344 9.85621 2.31479
1869 1 19.4123 9.70788 2.41756
1848 1 19.0217 8.82361 2.006
2179 1 21.1588 8.73298 1.86504
1625 1 20.2011 9.27395 1.91609
1919 1 20.6923 9.23347 2.83298
1920 1 21.2285 9.78858 2.29331
2180 1 21.5184 8.75338 2.73634
2167 1 22.7612 8.66472 1.46355
2168 1 22.2828 9.22441 2.09101
1862 1 22.0909 9.94726 2.83793
2188 1 23.6291 9.16804 1.72444
2178 1 24.0204 8.90311 2.74447
2187 1 24.5596 9.1959 1.57283
1925 1 25.0101 9.44621 2.55262
2263 1 26.5295 9.68558 1.47876
2264 1 25.827 9.25174 2.01905
2506 1 27.0387 9.0279 2.56608
2507 1 27.958 8.71414 2.06484
2508 1 27.465 9.45102 1.65312
289 1 28.2338 9.84596 2.22876
21 1 29.9227 9.85027 2.69796
287 1 29.2403 9.98164 1.86735
260 1 29.97 9.09747 1.91434
2251 1 29.0019 9.02067 2.35863
2252 1 28.9021 8.8266 1.46461
303 1 0.982075 0.267716 3.89476
121 1 1.39836 1.31747 3.90132
304 1 0.637936 0.827289 3.14827
31 1 2.17444 0.253705 3.03805
32 1 2.37037 1.1942 3.05785
342 1 2.53095 0.494387 4.1227
93 1 4.22049 1.19906 3.72889
341 1 3.18369 0.576819 3.42698
29 1 4.56607 0.471837 2.9748
354 1 5.45647 0.951741 3.55825
262 1 4.58357 0.00552742 3.98198
338 1 6.72042 1.34562 3.01311
370 1 6.44763 0.553412 3.50865
369 1 7.08764 1.016 4.06129
339 1 8.57065 1.3073 3.12931
899 1 8.24794 0.0582056 3.13305
616 1 7.88144 0.158308 4.10208
340 1 8.36708 1.28609 4.10378
710 1 9.29625 0.680875 3.7547
742 1 9.81094 0.0220234 2.9461
709 1 9.69575 1.14982 2.9777
656 1 10.4432 0.663857 3.50723
988 1 12.2119 0.459851 2.9655
907 1 11.4349 1.28002 2.93305
904 1 11.4872 0.431324 3.62771
994 1 12.4449 1.33266 3.55019
1205 1 12.5138 0.336653 4.15758
993 1 11.5778 1.34975 4.10603
1536 1 13.3716 0.966904 4.07251
1535 1 13.4347 0.880112 3.14662
968 1 14.4944 0.705743 2.98996
1249 1 15.3573 0.979217 3.5459
1317 1 15.9798 0.261372 2.90557
1000 1 15.8911 0.117684 3.999
1007 1 16.6247 0.967756 3.75746
1313 1 17.6279 0.588973 3.06574
1314 1 18.5465 0.763226 2.87396
1391 1 17.9145 1.09222 4.03455
1562 1 17.4784 0.0406788 4.13092
1310 1 19.902 1.1414 3.45453
1309 1 19.307 0.371735 3.4915
1640 1 19.0915 1.10964 4.21261
1633 1 20.5636 0.238201 3.78036
1718 1 20.8691 1.23693 3.84488
1881 1 21.227 0.68935 3.04392
1877 1 22.6087 0.887485 3.24878
1878 1 21.9145 0.878976 3.94986
2183 1 23.7154 0.508491 3.3245
1956 1 23.859 0.870709 4.27252
2176 1 24.4966 1.25196 3.14684
1960 1 25.4296 0.348306 3.67243
1959 1 24.7329 0.082302 4.20202
2334 1 26.0956 1.07347 3.6724
2273 1 26.6513 0.178336 3.99215
2498 1 27.5677 0.54066 3.32264
2497 1 28.5421 0.78535 3.36822
2267 1 29.667 0.644382 3.41086
2344 1 0.812608 1.97285 3.09244
2343 1 0.802963 2.44141 3.92188
41 1 0.0770663 1.4644 3.91592
445 1 2.46745 1.56167 4.14906
38 1 1.81348 2.33776 3.2481
446 1 2.56844 2.51535 4.25996
102 1 2.85853 2.26163 3.28512
101 1 3.46069 1.61242 3.0875
435 1 3.80589 2.14504 4.05156
414 1 3.91445 2.74345 3.0102
94 1 4.58724 1.51713 2.86877
353 1 5.68254 1.83871 3.2925
409 1 4.79207 2.27673 3.63804
350 1 5.66798 2.57176 4.24806
427 1 6.69732 2.11394 3.99063
344 1 7.64589 1.75163 3.44892
666 1 8.59032 2.28255 3.83686
644 1 9.42084 2.82438 3.91779
351 1 9.70089 1.65748 3.9103
743 1 10.3348 2.80707 3.21036
352 1 10.5859 1.84289 3.56893
978 1 11.5701 2.37816 3.502
1002 1 14.054 2.02039 4.08181
1001 1 13.2497 2.04449 3.56273
985 1 15.0137 2.09739 3.43995
1250 1 14.8678 1.46682 4.27677
986 1 15.9773 2.01975 3.35648
1407 1 17.0613 2.64102 3.93708
1008 1 16.0184 1.58304 4.19183
997 1 15.8681 2.79985 4.27377
979 1 17.3022 1.5653 3.17985
1408 1 17.1717 1.79258 4.25905
980 1 18.0747 2.11452 2.93001
1389 1 18.1682 2.35453 4.01468
1305 1 19.0202 1.97337 3.40695
1631 1 20.0646 2.26931 3.33513
1709 1 21.1243 2.71904 3.77061
1671 1 22.8008 2.22849 3.78829
1705 1 21.745 1.90777 3.5731
1672 1 23.3167 1.70623 3.13759
1620 1 23.7867 2.29969 3.9778
2175 1 24.3046 2.21515 3.03967
1619 1 24.7194 1.98599 3.92094
2340 1 25.5282 2.38062 3.44628
2361 1 26.8551 1.71977 3.65588
2287 1 27.8951 1.68817 3.26581
2052 1 27.2625 2.5408 3.14952
2278 1 28.8877 1.74041 4.00143
2268 1 29.8633 1.56689 2.95058
2277 1 28.8877 1.95101 3.0522
2519 1 29.7481 2.55216 2.90742
2520 1 29.6645 2.50416 3.89699
195 1 0.609521 3.08354 2.99592
2359 1 0.144249 3.6598 4.11311
196 1 0.936549 3.91698 3.42933
25 1 1.58085 3.13187 4.22325
26 1 2.04726 3.71506 3.59038
480 1 3.0263 4.23907 2.94106
497 1 4.03378 3.70744 3.29499
436 1 3.90134 3.11247 4.21511
434 1 3.3724 4.09416 4.06708
433 1 3.00177 3.32219 3.70408
410 1 4.90733 3.18389 3.85235
408 1 5.2887 4.21729 3.67209
407 1 4.48605 4.16241 4.23561
483 1 5.89859 3.10573 3.41717
425 1 6.8301 3.51588 2.92365
347 1 6.57342 4.16656 4.21337
426 1 6.82009 3.15488 3.81891
424 1 7.53087 4.15751 3.22809
745 1 7.9283 3.08949 3.4601
755 1 8.38953 4.15198 3.8173
756 1 7.72132 3.71127 4.26807
643 1 8.91007 3.31918 3.20176
747 1 9.93826 3.80888 3.70418
736 1 11.3891 3.49682 3.63202
1068 1 12.5829 2.91578 3.61036
1074 1 12.1337 3.83667 2.94627
1122 1 13.8863 4.16188 3.60326
1121 1 13.1718 3.76393 3.14961
984 1 13.7674 2.9789 3.74171
1076 1 13.0994 3.78951 4.2052
1077 1 15.2833 3.37636 3.02839
1078 1 14.7141 3.08836 3.75623
1382 1 15.4748 3.85128 4.00584
1376 1 16.2539 3.0622 3.38669
1085 1 16.4451 4.11602 3.72158
1086 1 17.1906 3.61733 3.38748
1419 1 18.2702 4.15423 4.25318
1400 1 18.6253 2.9678 2.94828
1390 1 18.8753 3.10214 4.05272
1385 1 19.5026 4.10481 3.7385
1312 1 20.0735 3.21411 3.85282
1710 1 21.2914 3.32445 3.05595
1798 1 21.0881 4.11737 3.78375
1394 1 20.3649 4.03557 3.05435
1873 1 22.1202 2.89108 3.40875
1797 1 22.0374 3.88569 3.77451
1943 1 23.7608 3.13913 3.32392
1944 1 23.0422 3.78684 3.39956
1628 1 24.251 3.72456 3.98736
1931 1 25.0303 3.1092 2.93025
2100 1 24.7165 4.1756 3.02079
2039 1 25.3647 3.86091 4.12023
2354 1 26.1078 3.20516 3.47184
2124 1 26.562 3.81513 4.23154
2364 1 27.5523 3.41281 3.77695
2363 1 28.2691 3.11874 3.19162
2431 1 29.5577 3.83713 3.02453
199 1 28.703 3.34422 4.0109
185 1 0.288111 5.2921 2.88239
2370 1 0.140908 4.63417 3.81497
103 1 1.4138 4.7646 3.09331
104 1 1.48983 5.70386 3.29721
180 1 2.84313 5.18498 3.39642
111 1 2.31242 4.49933 4.16827
112 1 1.79154 5.28571 4.21917
179 1 3.5824 4.98421 4.00556
421 1 5.37371 5.04855 2.98398
420 1 4.59853 5.63948 3.32448
331 1 6.36658 4.75173 3.23413
442 1 5.9071 5.02074 4.23203
825 1 7.71301 5.35906 2.87517
423 1 7.53266 4.8734 3.90383
826 1 8.27892 5.53156 3.69033
1157 1 9.99894 5.1567 3.30995
1158 1 9.22797 4.65547 3.62565
735 1 10.9396 4.36615 3.43922
758 1 10.699 5.49567 3.99134
1055 1 12.1508 4.37606 3.84826
912 1 12.3642 5.48319 4.10411
911 1 11.6893 5.23774 3.55976
1056 1 12.8755 4.70544 3.28542
1060 1 14.2431 5.12548 3.6747
1458 1 14.9353 4.42546 2.94205
1225 1 15.1709 5.59121 3.23353
1071 1 15.1868 5.04925 4.2463
1480 1 17.4885 4.6427 3.18154
1727 1 18.7319 4.54607 3.10607
1473 1 19.907 5.06581 3.25192
1716 1 19.0122 4.95044 4.14904
1782 1 21.18 4.90029 2.90096
1789 1 20.7941 5.28798 4.04551
2028 1 22.7491 4.99715 3.12059
1713 1 21.9781 4.94139 3.80605
2030 1 22.7842 5.69804 3.90925
2027 1 23.61 4.62825 3.33884
2040 1 25.5804 4.56023 3.46203
2348 1 24.3887 5.51076 3.1515
2036 1 26.5455 4.36822 3.24033
2112 1 26.3068 5.43365 3.85023
2335 1 27.5535 4.45463 2.8793
2035 1 27.1606 4.8834 3.73102
2037 1 28.2638 5.26752 4.08492
108 1 28.3911 5.27287 3.02295
107 1 28.6366 4.4213 3.41537
194 1 29.304 5.34898 4.08126
204 1 0.0624804 6.00611 3.59908
190 1 0.334132 7.13513 3.65842
189 1 0.845217 6.56289 3.11388
202 1 1.10969 6.48689 4.27423
184 1 2.25837 6.65379 3.62564
419 1 3.69238 5.85922 3.53588
281 1 3.19953 6.67289 3.02726
500 1 4.51261 7.11388 3.61343
512 1 5.06081 6.26838 4.00734
594 1 6.9068 5.76409 3.5093
593 1 5.92816 5.89505 3.43015
587 1 6.51482 6.80062 4.22679
819 1 7.27189 6.76137 3.28007
811 1 8.38146 6.45574 2.98173
504 1 7.7489 6.38444 4.09539
1135 1 9.62291 6.05806 3.0083
812 1 8.80129 6.33871 3.78145
897 1 9.84817 6.17946 3.96639
824 1 10.9704 5.71695 2.88571
898 1 10.6497 6.4776 3.53
1277 1 11.4904 6.94588 2.98492
1170 1 12.0342 6.46352 3.72159
1137 1 13.2528 5.7452 3.57224
1148 1 14.1165 6.28722 3.40396
1233 1 13.2917 6.97706 4.023
1160 1 14.924 6.76089 4.12393
1142 1 15.554 6.93984 2.88355
1226 1 16.0573 5.91362 3.22085
1481 1 16.8818 6.69861 3.19389
1558 1 16.1881 6.73347 3.96534
1464 1 17.5449 5.7356 3.52813
1489 1 17.7197 6.62774 4.09541
1715 1 18.5408 5.90942 4.16035
1474 1 19.4325 5.8428 3.54125
1795 1 18.7916 6.91586 3.82834
1774 1 21.3226 6.73925 3.28836
1781 1 20.6331 5.72948 2.99744
2121 1 20.4998 6.44904 3.93098
1773 1 21.5017 5.7964 3.55337
2029 1 22.3648 6.51589 3.48362
2031 1 23.3256 6.01207 2.9942
1791 1 23.41 6.85892 3.69101
2118 1 23.9698 5.78766 4.0708
2347 1 25.3292 5.79792 3.41954
2102 1 24.4369 6.65121 3.32622
2358 1 26.8602 5.82038 2.89735
2337 1 26.5082 6.65769 3.2405
2414 1 27.111 6.01156 4.18463
2428 1 26.7682 7.02453 4.22275
2499 1 28.2678 6.99789 3.50115
2413 1 27.803 6.13855 3.66353
207 1 28.8228 6.06044 3.57771
2438 1 29.2772 6.96771 3.82718
294 1 1.39355 7.52891 3.65561
58 1 1.3932 8.40969 2.8663
279 1 2.40745 7.44312 4.20528
280 1 2.53537 8.23031 3.71662
53 1 1.5805 8.30697 4.26103
575 1 3.79679 8.43476 3.11048
282 1 3.13076 7.57714 3.13641
569 1 5.49541 7.95595 3.57501
506 1 6.70574 7.69778 3.07577
588 1 6.48271 7.78821 4.16901
565 1 7.57689 7.84718 3.63738
566 1 8.45446 7.42784 3.49321
502 1 9.18483 8.38536 2.8948
803 1 9.53219 7.65957 3.67744
919 1 8.61461 8.26787 4.15978
1214 1 10.8289 7.70808 3.33514
804 1 10.2536 7.23371 4.13432
686 1 10.5498 8.48887 4.06665
1269 1 12.4965 7.4399 2.99808
1139 1 11.6873 7.42061 3.87319
1140 1 12.2813 8.16676 3.69407
1216 1 13.9128 7.76926 2.90029
1468 1 13.6646 7.89591 4.10276
1553 1 14.9823 7.73033 3.47363
1554 1 15.9177 7.75532 3.37384
1557 1 16.7276 7.50199 4.11819
1454 1 16.836 8.5007 3.4627
1490 1 17.9053 7.15341 3.36231
1807 1 18.2791 8.5695 3.68413
1808 1 17.9261 7.89088 4.19607
1547 1 19.1688 7.99257 3.17475
1548 1 19.8128 7.27544 3.15425
1893 1 19.6414 7.64067 4.23315
1868 1 19.9002 8.43646 3.64301
1853 1 20.8852 7.78328 2.92513
2122 1 20.7272 7.4255 4.14843
1859 1 21.0867 8.52896 3.69908
2107 1 21.6896 7.61486 3.76099
1792 1 22.8412 7.55184 3.35167
2169 1 24.1988 7.80961 2.91056
2275 1 24.0699 8.05828 3.95343
2276 1 24.9176 7.62301 3.90435
2199 1 25.2295 8.3185 3.16661
2338 1 26.3942 7.61227 3.36746
2191 1 25.8065 8.20134 4.08462
2518 1 27.0408 8.44293 4.12673
210 1 28.4759 7.90389 3.99003
2433 1 28.0568 8.34158 3.0622
2427 1 27.4593 7.54368 3.83681
2355 1 29.447 7.99594 3.1525
212 1 29.2919 8.4666 4.25
274 1 0.12645 9.70277 3.86857
54 1 1.32644 9.20997 3.93297
273 1 0.350946 8.75162 4.06703
57 1 1.83149 9.33829 2.92122
276 1 2.3847 9.29066 3.98944
24 1 2.73028 8.78809 2.87422
275 1 3.17779 9.56406 3.63972
277 1 3.98769 9.03355 4.22237
30 1 5.31297 9.9248 2.98255
571 1 5.44565 8.79372 2.86754
278 1 4.67076 8.94018 3.52392
596 1 6.0269 9.52249 3.84054
577 1 7.10744 9.83941 2.96348
505 1 6.4294 8.57201 3.46378
590 1 7.43764 8.92548 3.33071
589 1 8.09947 9.16821 3.90403
905 1 9.57055 8.7435 4.01021
584 1 9.84425 9.87676 4.21063
895 1 9.0408 9.5286 3.52632
1213 1 11.0631 8.6608 3.24007
906 1 10.1297 9.07079 3.33447
886 1 10.8881 9.61903 2.89844
1229 1 10.7663 9.47025 4.00875
903 1 11.9071 9.61562 3.51001
1235 1 12.8498 8.90835 4.24029
1219 1 12.9735 9.55566 3.41139
1152 1 13.5687 8.57843 3.46474
1220 1 13.9229 9.78453 3.35755
1228 1 15.4134 8.67176 3.55301
1227 1 14.9718 9.5488 3.6467
1570 1 16.2105 9.38396 3.28467
1574 1 18.4071 9.90793 3.44897
1573 1 17.6477 9.45162 3.10575
1497 1 17.478 8.91028 4.2759
1549 1 18.9156 9.04739 2.98077
1550 1 19.093 9.14939 3.93305
1867 1 19.9181 9.38875 3.41441
1871 1 21.3158 9.54128 3.67488
1860 1 22.0143 8.66537 3.71006
1861 1 22.5296 9.71148 3.69139
2177 1 23.0972 8.94458 3.07407
2190 1 23.2453 8.72409 4.19294
1926 1 24.4134 9.65738 3.28263
2192 1 25.4873 9.11178 4.20831
2200 1 26.1297 8.66478 3.11332
2505 1 26.8837 9.40248 3.47002
290 1 27.9622 9.51867 3.06094
2280 1 27.7286 9.45367 4.05027
291 1 29.65 8.93096 3.25558
2457 1 28.5851 8.97215 3.83815
292 1 29.0667 9.74774 3.31396
42 1 0.446027 0.768076 4.48684
39 1 1.88533 1.06243 4.94221
49 1 2.64444 0.0799191 5.61615
360 1 3.62437 0.368711 4.37296
448 1 3.8305 1.37593 4.6758
447 1 3.07297 0.974514 5.08474
358 1 4.99407 0.778829 4.73097
595 1 5.81119 0.329835 4.32325
781 1 5.96242 1.18128 4.87291
782 1 6.67159 0.552996 4.90885
615 1 7.88105 0.387876 5.04952
683 1 7.44816 1.30438 5.14043
682 1 8.74341 0.840964 4.98672
654 1 9.79719 0.833779 4.65995
653 1 9.61113 0.0741827 5.33119
1230 1 10.7309 0.208905 4.65343
910 1 10.2796 0.807831 5.51596
909 1 11.1818 0.57693 5.6909
1206 1 11.7619 0.399763 4.69163
1208 1 12.6259 0.356991 5.69267
1240 1 12.7016 1.13173 4.96514
1207 1 13.3419 0.126312 5.02183
1248 1 14.1889 0.282788 5.71364
677 1 14.0544 1.17972 5.11011
1246 1 14.3215 0.118438 4.38055
999 1 15.3711 0.632836 4.50713
1401 1 15.7659 0.688123 5.66132
1328 1 16.4747 1.37478 5.06426
1402 1 16.5694 0.23636 5.40228
1327 1 17.2954 0.857515 4.79389
1639 1 18.5235 0.417452 4.63404
1896 1 18.7298 0.704472 5.60843
1659 1 20.2258 1.11471 4.66493
1634 1 21.1335 0.434577 4.59672
1658 1 20.6935 0.0907667 5.66516
1856 1 22.7624 0.250496 5.44885
1855 1 22.8513 0.257632 4.47506
1635 1 22.3888 1.16433 4.92889
2193 1 23.4403 1.08705 5.39682
2194 1 24.1512 0.424183 5.22911
2256 1 25.223 1.07132 4.40714
1983 1 25.1934 0.492391 5.42735
2513 1 26.5768 0.97389 4.65954
2274 1 25.9914 0.136818 4.68686
2514 1 26.5015 0.847962 5.57961
2279 1 27.8836 0.376134 4.34415
2295 1 28.1835 1.23402 4.79182
1976 1 27.395 0.501704 5.34314
2293 1 29.7567 0.327845 5.16571
2528 1 29.1066 0.79347 4.36663
2304 1 28.9358 0.524462 5.65434
2385 1 29.5653 1.42014 5.14737
2352 1 0.839531 1.46209 5.06593
2447 1 1.22561 2.40028 5.58594
2351 1 0.194714 2.0474 4.77951
122 1 1.56707 1.98436 4.56889
45 1 2.51713 1.9226 5.23473
46 1 2.0968 2.81229 5.25557
128 1 3.28275 2.6901 5.09361
61 1 3.67978 1.69135 5.60124
357 1 4.80782 1.67345 4.46907
437 1 5.08695 1.75955 5.39252
428 1 6.70096 1.86009 4.89064
349 1 5.8679 2.67048 5.1644
343 1 7.7549 2.02888 4.42182
665 1 8.54085 2.83811 4.67681
361 1 7.73341 2.59729 5.29382
362 1 8.37501 1.86122 5.21167
754 1 9.41492 1.76754 5.32625
753 1 9.48189 2.71212 5.24135
982 1 10.3963 1.95829 4.59914
981 1 10.4631 2.82954 4.29213
995 1 11.1827 1.56646 5.00338
996 1 10.4432 1.83485 5.60127
672 1 10.6391 2.78726 5.33107
737 1 11.4854 2.61046 4.71224
738 1 12.2426 2.16661 4.36152
1237 1 12.3477 2.04925 5.36068
1239 1 13.1909 1.89577 4.62957
998 1 15.118 2.39874 4.56297
1090 1 15.6497 2.00127 5.33583
1162 1 14.3649 2.2956 5.40605
1403 1 16.4783 2.43951 4.96
1392 1 18.2853 1.52066 4.84173
1319 1 17.313 1.86017 5.34502
1741 1 18.1848 2.58041 5.09904
1641 1 19.1509 2.25934 4.7016
1642 1 19.478 1.80951 5.51691
1660 1 20.4387 2.03874 4.33242
1717 1 21.2947 1.47549 4.71601
1719 1 20.5948 1.77857 5.48212
1733 1 21.0274 2.73933 4.95807
1734 1 21.8892 2.32564 4.55553
1654 1 22.4692 2.73796 5.5455
1648 1 21.5674 1.79887 5.65838
1623 1 23.1492 2.05717 4.8591
1948 1 25.4644 2.44156 4.59995
1955 1 24.4064 1.49091 4.84914
1947 1 25.4849 2.46942 5.54779
1945 1 24.4209 2.41565 5.21893
2255 1 25.6442 1.55552 5.16164
2362 1 26.1397 1.81378 4.29972
1973 1 26.5643 2.33165 5.64377
2123 1 26.7134 2.8353 4.31811
2282 1 27.7314 2.3282 4.35418
2296 1 27.3775 1.63894 5.16014
2386 1 28.8937 2.05408 5.09588
2442 1 29.9517 2.75622 5.4885
2448 1 0.766402 2.86167 4.85754
2360 1 0.307977 3.79181 5.11289
127 1 2.80194 3.51645 4.88339
126 1 1.77446 3.86997 4.94006
130 1 3.79524 3.66599 5.30015
129 1 4.38604 2.93306 5.3193
431 1 5.46878 3.54746 5.55798
760 1 6.83148 3.17459 5.00068
432 1 5.75138 3.65819 4.59583
667 1 8.19475 3.3691 5.65938
829 1 7.51049 4.15082 5.317
761 1 8.85692 3.86924 4.85132
748 1 9.87502 3.61613 4.60336
671 1 11.0545 3.55358 4.84178
778 1 10.3005 3.88992 5.5565
1075 1 12.2346 3.3784 4.53203
1167 1 12.7396 4.13147 5.16268
1014 1 12.0496 3.02542 5.43287
983 1 14.1209 2.97253 4.71675
1081 1 13.1234 3.00606 4.87948
1079 1 13.7319 4.24097 5.09343
1080 1 14.4152 4.11915 4.46443
1134 1 15.1681 3.46311 4.87976
1381 1 16.2928 3.68579 4.59593
1404 1 16.0559 3.08045 5.62146
1420 1 17.3065 4.07959 4.37333
1742 1 18.229 3.53304 5.29088
1411 1 17.374 3.19343 4.85598
1311 1 19.8655 3.20423 4.7955
1731 1 19.0306 4.12543 4.90365
1752 1 19.2041 2.89236 5.66148
1732 1 19.9674 4.20918 5.28738
1650 1 21.0069 3.78962 5.00083
1649 1 20.5864 3.34036 5.70629
1729 1 22.3006 3.32148 4.53494
1730 1 22.032 3.69174 5.34253
1624 1 23.4769 2.87245 5.18783
1627 1 23.4543 3.25665 4.32362
2046 1 24.1472 4.05015 5.48492
2041 1 22.9685 4.12845 5.3455
1946 1 24.7028 3.29059 4.93234
2049 1 26.6371 3.41153 5.58054
1966 1 25.7779 4.09736 5.50171
1965 1 25.845 3.31678 4.91745
2050 1 27.055 4.18258 5.25459
2281 1 27.4061 2.93739 5.0752
2365 1 27.644 4.25746 4.39583
2366 1 28.1774 3.63973 4.87725
2285 1 28.5347 2.97682 5.57048
200 1 29.1359 4.15751 4.33506
2441 1 29.3633 2.94294 4.75473
203 1 0.493645 5.64763 4.30011
2369 1 0.961047 4.55586 4.32134
124 1 0.667687 4.77825 5.20539
123 1 1.1864 5.63455 5.04801
592 1 2.39672 5.33483 5.04398
191 1 2.95332 4.5462 5.14911
116 1 3.92585 4.72827 5.16988
591 1 3.24112 5.70201 5.07441
441 1 4.9399 5.18896 4.36981
115 1 4.87242 4.53838 5.28115
522 1 4.95269 5.63828 5.48706
348 1 6.79412 4.81745 4.88458
827 1 7.6815 5.22898 5.67333
830 1 8.17364 4.60111 4.83011
503 1 7.50714 5.62976 4.66234
751 1 8.94849 5.04629 4.45579
752 1 9.85481 4.716 4.39575
749 1 8.77268 5.30538 5.68289
750 1 9.41703 4.60404 5.36002
846 1 10.247 5.56779 4.91222
757 1 11.0244 4.63117 4.39646
1094 1 11.2314 4.79599 5.56435
1168 1 12.1003 4.76788 4.77504
1059 1 14.2054 5.61177 4.5004
1189 1 13.1815 5.11974 4.81597
1097 1 14.9447 4.83549 5.37574
1098 1 15.7266 4.49034 5.01369
1475 1 16.7754 5.00197 4.87871
1496 1 15.9393 5.55686 5.25304
1463 1 17.6221 5.1418 4.3448
1397 1 17.5712 4.5183 5.34497
1398 1 18.3378 5.02641 5.07249
1725 1 19.3893 4.97078 5.58359
1799 1 19.8409 5.57813 4.67275
1701 1 20.2857 4.5831 4.40729
1702 1 20.6697 4.97094 5.1798
1723 1 21.4191 5.67541 5.60997
1714 1 21.5372 4.59004 4.65555
2042 1 22.5472 4.3979 4.48951
1739 1 22.5138 5.69588 5.59342
1962 1 23.5995 4.49633 4.39405
1961 1 23.1571 5.21881 4.70802
2025 1 24.8298 4.89174 5.35991
2026 1 24.7108 5.05663 4.44222
2128 1 25.6087 5.53536 5.15172
2367 1 26.0737 4.73264 4.68183
2368 1 26.9577 5.10859 4.73886
2465 1 28.1475 4.70293 5.26267
2436 1 27.7399 5.61496 5.70189
117 1 29.6946 4.78461 5.13563
193 1 28.7829 5.34696 4.88725
138 1 0.422444 6.60393 5.04596
137 1 1.1459 6.37902 5.6276
284 1 2.08125 6.26542 4.85985
283 1 2.80644 6.73918 5.26084
201 1 1.57372 7.06724 4.8684
499 1 3.97318 6.87736 4.43891
183 1 2.93664 6.52416 4.30001
219 1 4.07 6.30334 5.40448
511 1 5.53113 7.03978 4.34089
509 1 4.94324 6.72702 5.30995
514 1 6.17968 5.75784 4.88625
513 1 6.93155 6.30865 5.33561
1064 1 8.329 6.09294 5.05555
1063 1 7.85081 6.8301 5.40366
917 1 8.34573 7.1298 4.52751
845 1 9.32761 5.94717 4.89308
831 1 9.86676 6.8763 5.12421
835 1 10.8105 6.42691 4.71807
1156 1 11.2638 6.53187 5.63051
836 1 11.4642 5.7258 4.71324
1169 1 12.0575 6.61676 4.70029
1153 1 12.6297 5.81031 5.43156
1190 1 13.1667 6.07073 4.70888
1252 1 13.1615 7.04866 5.14059
1255 1 13.9928 6.70583 5.6359
1072 1 15.6163 5.91553 4.36552
1177 1 14.8007 6.30886 5.06225
1476 1 16.7855 5.84287 4.36493
1499 1 16.0861 6.54839 5.18174
1495 1 16.8713 5.75947 5.55124
1485 1 17.2059 6.66245 4.98893
1421 1 18.4705 6.85315 5.01899
1486 1 17.7257 5.86442 5.05139
1478 1 18.8924 5.83912 5.29111
1796 1 19.4023 6.55049 4.49661
1790 1 20.7812 5.93063 4.83204
1800 1 20.094 5.77138 5.54157
1801 1 20.1662 6.96434 5.08549
1787 1 21.5587 6.67014 4.30934
1883 1 21.6599 6.64701 5.56828
1788 1 21.7971 5.81706 4.63034
2114 1 22.4905 6.52038 4.93755
2117 1 23.592 6.27098 4.83439
2127 1 24.8347 6.10119 5.03565
2129 1 24.9496 6.72506 4.33439
2111 1 25.9701 6.21651 4.40485
2140 1 26.8647 6.7075 5.32631
2133 1 25.7844 6.86651 5.39434
2445 1 27.9588 6.81459 4.58278
2038 1 27.9457 5.83595 4.75116
2446 1 28.3863 6.38102 5.40469
118 1 29.8607 5.7184 5.04724
113 1 29.6513 6.9614 5.59858
2437 1 29.2032 6.49331 4.63342
293 1 0.768328 7.66199 4.4278
214 1 0.327803 8.27515 5.09141
2308 1 2.15522 7.84933 5.28025
515 1 3.81223 7.90117 4.48024
35 1 3.13222 7.76666 5.31028
269 1 4.17451 7.81621 5.46886
36 1 3.13421 8.55052 4.73251
516 1 4.70572 8.20427 4.33902
510 1 5.22669 7.64082 5.15333
582 1 6.42407 7.47046 5.1525
916 1 7.01313 8.36446 5.65357
603 1 7.21776 8.49573 4.44982
918 1 7.35734 7.35503 4.56969
920 1 8.16324 8.02895 4.99496
1173 1 9.58579 7.96676 4.89245
833 1 8.97785 7.34853 5.38135
921 1 10.848 7.38192 5.08276
1174 1 10.1104 8.22371 5.61077
685 1 11.0354 8.32744 4.8753
1234 1 12.6144 7.54985 4.34831
1242 1 12.1656 8.30063 5.13494
1159 1 14.2614 7.17167 4.65449
1467 1 13.2174 8.12909 4.93201
1541 1 14.1548 8.53092 5.10473
1542 1 14.7045 8.41407 4.30937
1145 1 15.6674 7.50523 4.51544
1576 1 14.3686 7.65625 5.59443
1146 1 15.2131 7.20297 5.31446
1564 1 15.571 8.46698 5.11966
1563 1 16.1153 8.51853 4.29717
1559 1 17.0822 7.66664 5.28775
1560 1 16.174 7.66613 5.65961
1498 1 17.6234 8.53086 5.1503
1805 1 18.3528 7.93186 5.57377
1894 1 19.2868 7.49064 5.06012
1903 1 18.9425 8.57076 4.92937
1492 1 20.1232 8.16146 5.70994
1491 1 20.3593 8.25368 4.75349
1863 1 21.1891 7.52279 5.24964
1864 1 21.4978 8.30662 4.70996
2108 1 22.3275 7.56104 4.46383
2197 1 23.9456 8.0802 4.98061
2198 1 23.2863 7.37221 4.83702
1885 1 22.8953 8.15199 5.39793
2130 1 25.6924 7.26002 4.52171
2202 1 24.6803 7.3987 5.36368
2451 1 25.8455 8.49783 5.24127
2443 1 26.7217 7.75131 5.05106
2444 1 27.6241 7.9431 4.85163
2203 1 27.9166 7.3901 5.68958
209 1 28.7032 7.48171 4.78512
2439 1 29.3358 8.48629 5.39184
211 1 29.785 7.6192 4.47404
2292 1 0.541062 9.76762 4.78761
44 1 1.06631 8.89314 5.04774
43 1 0.523471 9.31041 5.70414
34 1 1.64261 9.90195 4.7502
33 1 2.10038 9.18157 5.23122
359 1 3.13598 9.65166 4.78577
59 1 3.98435 8.96522 5.70037
261 1 4.37574 9.95663 4.88883
600 1 4.74811 8.85569 5.07196
599 1 5.29127 9.37714 4.48194
604 1 6.96039 9.39715 4.29043
598 1 6.04482 8.67386 4.4786
368 1 6.19485 9.62853 5.11696
367 1 7.08494 9.31089 5.381
597 1 5.82639 8.70884 5.37541
585 1 8.00888 8.96991 5.41522
583 1 8.92647 9.85166 4.60455
914 1 9.17484 8.90633 4.95237
924 1 8.71598 9.67846 5.63998
913 1 10.119 9.2281 4.89583
1223 1 11.7704 9.37119 5.38032
1224 1 11.9069 9.11576 4.38855
1236 1 12.8303 9.29431 5.16702
1245 1 13.8153 9.26188 4.34376
1247 1 14.4621 9.44208 5.34308
1315 1 15.1569 9.3212 4.65746
1316 1 15.5553 9.71058 5.49391
1579 1 16.6923 9.15144 5.39671
1580 1 16.5814 9.59261 4.5782
1904 1 18.4047 9.33965 4.67194
1561 1 17.5607 9.77244 5.13303
1887 1 19.8612 9.66861 4.45631
1888 1 19.9652 9.06576 5.247
1895 1 19.2965 9.91675 5.47806
1872 1 20.835 9.25717 4.50918
1890 1 21.0573 8.65813 5.55146
1637 1 22.3452 9.16636 4.59371
1643 1 21.7641 9.61764 5.31129
1638 1 22.7835 9.19407 5.44056
2189 1 24.1574 8.95248 4.32428
1949 1 23.5404 9.6985 4.93126
1950 1 23.8128 8.97234 5.50192
2512 1 24.7191 9.49733 5.65068
2452 1 24.8737 8.60662 5.23013
2511 1 25.5334 9.40954 5.20049
2517 1 26.4911 9.0428 4.53228
2119 1 26.6299 8.98692 5.67789
1975 1 27.2175 9.61053 4.97044
2458 1 28.4126 8.88525 4.76989
2120 1 27.5873 8.63902 5.69536
2527 1 28.84 9.89127 4.42632
2291 1 29.6876 9.30002 4.77636
300 1 0.652843 0.475136 5.87758
2377 1 0.284527 1.08929 7.03572
40 1 1.60505 1.32254 5.79662
70 1 2.30317 0.58314 6.39996
364 1 4.0279 0.00542677 5.95119
67 1 4.12623 0.745755 6.69678
374 1 5.55733 1.17075 6.57978
363 1 4.72902 0.603994 5.7444
373 1 5.93469 0.625532 5.84437
618 1 6.9746 0.257386 5.81392
323 1 7.10137 1.30825 6.93742
622 1 8.0348 0.770981 6.47829
681 1 8.84737 0.939741 5.98801
698 1 9.72352 0.128486 6.74556
674 1 10.7067 0.677276 6.55402
1238 1 12 1.21461 5.77098
1572 1 12.6922 0.666554 6.63004
1571 1 13.6982 0.819277 6.61839
1322 1 14.5459 0.278443 6.69078
1332 1 14.7998 1.18935 5.8676
1331 1 15.3217 1.07712 6.71226
1323 1 16.6296 0.12375 6.45444
1333 1 16.2558 1.398 6.54801
1661 1 17.3999 0.748735 5.86848
1662 1 17.1896 0.86693 6.8116
1897 1 18.1821 0.707029 6.67369
1657 1 19.9389 0.648592 5.79372
1898 1 19.0906 0.204225 6.53873
1655 1 19.8287 1.30665 6.63513
1720 1 20.816 1.17785 6.20264
1737 1 21.2896 0.0783274 6.71139
1738 1 20.3438 0.282188 6.63559
1647 1 21.684 0.87974 5.81214
2210 1 22.2494 0.6865 6.80331
1980 1 21.476 1.1822 7.09822
1954 1 23.2256 0.719585 6.39886
2224 1 24.1748 1.01187 6.93405
1922 1 24.4164 0.288125 6.20542
2223 1 25.0584 0.570875 7.09199
1978 1 25.9506 0.907823 6.72721
2531 1 26.0806 0.0165281 7.12281
2242 1 28.1354 1.00344 6.87088
2241 1 27.3697 0.713412 6.41632
299 1 29.8656 1.0033 6.02806
2283 1 29.7607 0.0204247 6.66606
301 1 0.365431 2.04088 6.0378
302 1 1.02841 1.69861 6.65492
143 1 1.0426 2.65516 6.70077
48 1 2.05588 2.42032 6.22113
69 1 2.07185 1.45538 6.91976
62 1 2.96503 1.86084 6.25593
197 1 3.80648 2.78099 6.18876
365 1 4.53133 1.82297 6.50087
438 1 5.69628 2.06263 6.10331
198 1 4.81723 2.69195 6.2488
324 1 6.6898 1.46535 6.12434
759 1 6.85808 2.56159 5.77008
792 1 6.85921 2.40428 6.84946
689 1 8.3199 1.86882 6.81429
684 1 7.68564 1.56529 6.03673
668 1 7.83527 2.79056 6.35464
690 1 8.72528 2.27992 6.07598
641 1 9.74051 1.57442 6.47467
673 1 11.0831 1.47265 6.42971
642 1 10.3072 2.37565 6.51096
1070 1 12.7906 1.89042 6.59286
1013 1 11.6062 2.47067 6.0826
678 1 13.3838 1.57454 5.74952
1069 1 13.5567 2.52273 6.70681
1021 1 14.1819 1.74713 6.68593
1089 1 15.4991 2.25105 6.3044
1334 1 16.555 2.11504 5.98453
1320 1 17.9877 2.12774 5.94326
1366 1 17.2025 1.89929 6.74818
1326 1 18.8713 2.21374 6.52459
1410 1 19.8926 2.5104 6.33509
1409 1 20.7513 2.27231 6.69922
1636 1 22.4904 1.59137 5.80702
1986 1 21.8116 2.5834 6.62281
1653 1 23.0417 2.38025 6.24902
1957 1 23.7493 2.79606 7.00435
1951 1 24.09 1.72284 6.03716
1646 1 23.0393 1.6593 6.91582
1952 1 25.0463 1.46441 6.07146
1972 1 24.8704 2.27339 6.76667
1974 1 25.9946 1.79382 6.1183
2373 1 27.0919 1.79608 6.46452
1967 1 26.0039 2.82113 6.44891
2286 1 27.8546 2.27838 5.73798
2374 1 27.1882 2.72283 6.42596
2310 1 28.2939 2.1962 7.00325
2303 1 28.8446 1.4412 5.89134
2383 1 29.3376 2.74691 6.23629
141 1 0.986761 3.35831 5.87836
142 1 0.159149 3.50471 6.2549
150 1 1.22009 3.77686 6.91158
125 1 2.32072 4.0272 5.74472
47 1 1.95131 3.34533 6.44624
51 1 2.91425 3.22257 6.00988
52 1 2.92046 3.21162 7.06022
457 1 3.72192 3.90595 6.41411
458 1 4.50237 3.46133 6.86913
440 1 6.41395 3.94267 5.71787
449 1 6.05209 3.12544 6.53875
456 1 6.98788 3.43387 6.52296
694 1 8.46464 4.01885 6.70157
762 1 9.22391 3.55336 5.72055
675 1 8.76655 3.11656 6.95149
783 1 9.75634 3.41401 6.61951
777 1 10.9465 3.76831 6.22619
1096 1 12.5089 2.98438 6.94218
771 1 11.9926 3.96899 6.12833
1161 1 14.0403 3.08366 5.76648
1082 1 13.0101 3.00141 5.85672
1172 1 13.2742 4.16214 6.54451
1150 1 14.027 3.59921 7.02725
1133 1 15.0935 3.65689 5.80879
1149 1 14.6229 2.88865 6.68436
1506 1 14.9078 4.25897 6.96273
1418 1 15.6773 2.97337 7.08897
1412 1 17.1067 2.94403 5.74267
1084 1 16.3319 3.61963 6.49114
1164 1 16.5608 4.24988 5.73497
1083 1 16.9683 3.50741 7.13787
1163 1 17.3332 3.87361 6.19501
1751 1 18.529 3.28344 6.22955
1427 1 17.898 3.08484 7.07518
1670 1 19.322 3.15746 6.82173
1726 1 19.1735 4.09014 5.91897
1664 1 21.1457 4.22396 6.26198
1688 1 20.0926 3.86678 6.71855
1690 1 21.1606 3.41674 6.8152
1689 1 22.0429 3.61868 6.42082
1970 1 24.2628 3.0419 5.97905
1969 1 23.3744 3.41669 6.0606
1958 1 23.0545 3.44269 7.06593
2064 1 23.8947 3.96186 6.80966
2045 1 24.914 3.97725 6.05598
2063 1 24.7685 3.48757 7.0218
2137 1 26.7063 3.48811 6.83846
2138 1 25.808 3.83041 6.74958
2372 1 27.584 3.68171 6.01904
2381 1 28.3934 4.23046 6.85488
2382 1 28.2985 3.33465 6.72109
2384 1 29.2669 3.61158 5.77441
149 1 1.24325 4.45619 6.15235
2454 1 0.0834745 4.45124 6.02656
134 1 0.646886 5.28301 6.38114
133 1 0.44583 4.55179 6.90459
547 1 2.61342 4.3745 6.80991
469 1 2.58861 5.37094 6.63775
236 1 1.77948 5.2916 5.80246
192 1 3.08461 4.82895 6.02439
518 1 4.09383 4.82277 6.59922
517 1 4.89838 4.37171 6.38247
521 1 5.09546 5.33757 6.40856
439 1 5.80423 4.68966 5.79388
763 1 6.73378 5.27201 5.81793
464 1 5.90108 4.51864 6.88602
764 1 6.21588 5.48824 6.58887
455 1 7.29632 4.33953 6.33621
693 1 8.4601 4.33312 5.81799
443 1 7.80775 5.17875 6.76951
769 1 9.55456 5.16142 6.28126
765 1 8.98963 4.86085 7.02324
770 1 10.0985 4.43991 6.6896
1103 1 11.1792 5.00082 6.68212
1093 1 11.7109 5.5653 5.80656
772 1 12.3707 4.87993 6.32439
1104 1 11.8534 4.55806 7.11983
1171 1 13.3953 4.8442 5.87698
1192 1 13.8216 4.82329 7.02056
1505 1 14.3332 4.38605 6.19085
1191 1 14.5282 5.50764 6.89338
1501 1 15.6137 5.24836 6.94239
1414 1 15.7278 4.62435 6.1883
1413 1 16.6013 4.99094 6.33414
1665 1 17.9539 5.40197 5.98397
1666 1 18.1611 4.47775 6.16577
1423 1 17.5825 5.275 7.13094
1686 1 19.863 4.95834 6.58201
1405 1 18.8575 4.8497 7.03609
1663 1 20.723 5.08687 6.17786
1754 1 21.9649 4.79116 6.81832
1753 1 21.923 4.78156 5.79941
1684 1 23.0389 4.95113 6.89363
1963 1 23.47 4.89585 5.95109
2054 1 23.9352 5.37151 6.93375
1964 1 24.3683 4.72503 6.34591
1722 1 24.7814 5.70989 6.13605
2043 1 25.5232 4.89452 6.29732
2044 1 25.049 4.7139 7.11178
1811 1 26.1898 4.76325 7.0535
1812 1 26.4759 4.35456 6.19098
2449 1 26.6875 5.41664 5.91152
2371 1 27.4006 4.53622 6.46073
2466 1 28.7224 4.73191 6.03163
2453 1 29.4756 4.37116 6.76448
114 1 0.0421611 6.32747 6.09449
235 1 1.52108 5.75248 6.67218
206 1 2.24571 6.3075 6.01458
220 1 4.05714 5.99069 6.31261
205 1 3.13122 6.47969 6.24724
285 1 3.78275 6.97865 7.13628
839 1 5.00641 6.53882 6.32957
840 1 5.78068 6.17995 5.85803
608 1 6.57615 6.74829 6.3617
849 1 7.07422 6.02531 7.02764
828 1 7.60316 6.09776 6.06558
526 1 7.92914 6.88225 6.65446
832 1 9.7247 6.14703 5.83564
851 1 8.69199 6.31937 5.98226
852 1 8.70255 5.7679 6.77414
822 1 9.38999 7.06445 6.35175
922 1 10.6008 7.12991 5.98417
843 1 10.6251 5.85757 6.18432
844 1 10.4371 6.45924 6.99317
1155 1 11.6179 6.30066 6.56056
1154 1 12.3484 6.60325 5.81931
854 1 12.5554 6.94397 6.77571
1182 1 12.6673 5.79604 6.52606
1181 1 13.6017 6.02992 6.61601
940 1 13.6886 7.07093 6.9978
1178 1 14.8905 5.91064 5.94585
1256 1 14.5387 6.98424 6.34837
1415 1 15.5757 6.90796 6.42647
1416 1 15.9952 6.07379 6.151
1507 1 16.9773 6.06543 6.66342
1500 1 16.7195 6.80733 5.90027
1508 1 16.2611 6.59029 7.02418
1744 1 17.7732 6.35367 5.97938
1743 1 18.1284 6.5259 6.84168
1823 1 17.1745 7.10936 6.84571
1422 1 18.75 6.76066 6.02329
1802 1 19.9746 7.04865 6.09464
1477 1 19.0728 5.79638 6.23896
1826 1 19.175 6.5885 6.85713
1735 1 19.9846 6.10867 6.723
1724 1 20.959 6.0732 6.3307
1740 1 22.1985 5.88239 6.52514
1879 1 22.2651 6.86109 6.7024
1721 1 23.9422 5.80931 5.72758
2113 1 22.977 6.63265 5.74999
2053 1 23.4333 6.14213 6.94708
2116 1 24.0809 6.63227 6.18364
2149 1 24.2621 7.10076 7.04989
2134 1 25.7025 6.17319 6.08949
2115 1 24.9864 6.88635 6.22925
2450 1 26.6525 6.09437 6.58176
2139 1 26.4157 7.07262 6.11283
2435 1 27.5487 6.40563 6.16185
216 1 28.4831 6.00462 6.51386
215 1 29.1781 5.82414 5.90392
2204 1 28.6317 6.99374 6.1348
213 1 0.505561 7.56897 5.76956
224 1 1.39993 7.44198 6.37027
222 1 0.247104 7.16573 6.84353
218 1 0.0642702 8.04377 6.49831
223 1 2.12493 7.88779 6.90912
227 1 2.58567 7.32709 6.16721
2307 1 1.47871 8.27357 5.83213
295 1 2.58436 8.41538 6.08309
270 1 4.0112 7.25362 6.26679
228 1 3.1172 7.82464 6.76426
60 1 4.06939 8.4064 6.50938
611 1 4.95094 7.84937 6.31445
581 1 6.1211 7.87684 6.02649
607 1 5.88837 7.26129 6.80447
927 1 6.63837 8.30636 7.05693
928 1 6.97194 7.46239 6.99155
915 1 7.4258 7.54933 6.0063
586 1 8.04665 8.34029 6.21989
834 1 9.12528 8.07012 6.02283
821 1 9.80728 7.8194 6.66863
857 1 8.63067 7.70969 7.02518
936 1 11.3203 8.0078 5.84922
935 1 10.8359 7.99599 6.71321
1251 1 12.5406 7.56455 5.72198
853 1 11.9288 7.6656 6.5086
1266 1 13.5274 8.54166 5.99684
1166 1 14.2507 8.00133 6.98763
1265 1 13.1163 7.87096 6.62417
1335 1 15.4357 8.01812 6.70404
1575 1 14.7655 8.4567 5.95634
1588 1 16.631 7.98971 6.49233
1806 1 17.7681 7.48594 6.15509
1494 1 17.696 8.50997 6.39607
1825 1 19.1704 7.49794 6.98711
1816 1 18.6213 8.34384 6.54887
1603 1 19.7527 8.41259 7.05186
1793 1 21.078 7.46521 6.25188
1794 1 20.6621 7.69768 7.05422
1884 1 22.1128 7.47727 5.7694
1889 1 21.9272 8.47656 5.78487
1875 1 21.7594 8.36431 6.88948
1886 1 22.7363 8.03346 6.28992
2195 1 23.5733 8.56985 6.78608
1786 1 23.5596 7.64033 5.83284
1785 1 23.2948 7.21553 6.69963
2201 1 24.4437 8.0864 6.06144
2207 1 25.4898 7.73852 6.13805
2141 1 25.0724 8.08469 7.0411
2302 1 26.8587 8.02888 6.15514
2301 1 26.4111 8.28432 6.93466
2440 1 28.5167 8.35489 5.9731
2455 1 27.2733 7.21067 6.6911
217 1 29.191 7.79203 6.57547
2525 1 1.35018 8.71548 6.74242
2312 1 0.977145 9.96907 6.84727
2516 1 0.362517 9.0092 6.84504
315 1 1.83045 9.6152 6.06988
316 1 2.04783 9.65826 6.97722
296 1 2.80712 8.86403 6.9037
50 1 3.11378 9.35396 5.9933
388 1 3.37053 9.8647 6.97299
355 1 4.94418 9.20643 5.95603
623 1 4.88771 8.94644 6.95658
356 1 5.22795 9.99264 6.45499
624 1 5.74812 8.70318 6.68186
945 1 6.18635 9.72428 6.69979
946 1 6.7345 8.99417 6.31036
617 1 7.61927 9.72904 6.30266
838 1 9.03369 8.72651 6.83045
923 1 9.54922 9.18366 5.84898
697 1 8.7854 9.98198 6.82671
837 1 9.99549 8.92434 6.76794
1012 1 11.3311 9.80891 6.57901
669 1 10.5243 9.74133 5.73603
670 1 10.8414 8.86158 6.08606
1241 1 12.3685 8.6116 5.99558
1568 1 12.3837 9.64839 6.6743
1487 1 13.3864 9.80956 6.98939
1488 1 13.3457 9.70595 6.02122
1258 1 15.3009 9.04967 7.04753
1257 1 14.3795 9.03309 6.80507
1324 1 15.7079 9.97061 6.47774
1493 1 16.9425 9.09411 6.43661
1336 1 15.955 8.7462 6.25978
1581 1 17.5377 9.75271 6.92736
1582 1 18.0009 9.83948 6.05306
1819 1 19.8323 9.3355 6.38101
1815 1 18.8585 9.10121 5.99936
1891 1 18.8971 9.22302 7.0521
1820 1 20.6216 8.82027 6.58616
1644 1 21.915 9.37993 6.22122
2196 1 22.8416 9.06034 6.42911
1921 1 24.0365 9.96103 7.02098
2209 1 22.8638 9.92872 6.94511
1953 1 23.4564 9.87617 6.11944
1984 1 25.4361 9.97396 6.26341
2208 1 25.3511 8.72332 6.16045
2125 1 25.2535 9.18604 7.10688
2126 1 24.5102 9.10858 6.53469
2532 1 26.4669 9.92669 6.21894
2216 1 26.8729 9.3941 7.06589
2297 1 28.5279 9.66011 6.1048
2521 1 27.4776 9.65925 6.14455
2522 1 27.7731 8.93976 6.6707
2298 1 28.4016 9.83313 7.03436
2294 1 29.5369 9.57994 5.79578
2515 1 29.4566 8.78681 6.85352
66 1 1.2872 1.02815 8.53151
2305 1 0.301169 0.866738 8.44389
2311 1 1.45319 0.726571 7.27266
74 1 2.23924 0.79488 8.01912
1 1 3.02181 1.32938 7.21487
2 1 3.49599 0.679317 7.79227
453 1 5.6833 1.26092 8.25126
605 1 4.73809 0.809716 7.80845
371 1 5.44314 0.129504 7.55953
372 1 6.21282 0.647115 7.39013
390 1 6.75891 0.475007 8.3302
621 1 8.11893 0.56798 7.4798
704 1 8.40835 0.766212 8.48653
699 1 9.42505 0.152654 7.95596
679 1 9.11912 1.30742 7.51086
1018 1 10.0978 1.04224 7.3829
696 1 10.0606 0.888585 8.54962
933 1 10.8028 0.232054 8.30577
1011 1 11.8305 0.365296 7.16919
1261 1 11.542 0.869803 7.90338
1087 1 12.4436 1.32473 7.40473
1591 1 13.0077 0.393857 7.83774
1337 1 14.0708 0.0428059 8.54465
1009 1 15.4441 0.23844 7.56228
1023 1 14.4442 0.942285 7.74761
1010 1 16.1429 0.91656 7.50813
1349 1 17.8336 0.555021 7.69889
1899 1 19.7045 0.622009 7.55815
1656 1 20.4872 1.34316 7.34511
2220 1 21.354 0.960062 8.07755
1652 1 20.2541 0.705912 8.42365
1694 1 22.3549 1.21003 8.52841
2219 1 22.1314 0.439927 7.80061
2218 1 23.1132 0.737733 7.58242
2217 1 23.5933 0.0215943 7.93991
1993 1 24.2924 0.866546 8.04376
1994 1 25.0339 0.227009 8.10091
1990 1 25.849 0.875198 7.99493
1977 1 26.7091 1.23409 7.23292
1924 1 26.7098 1.00774 8.47199
2530 1 27.9541 0.61422 7.97861
2529 1 27.6074 1.41599 8.33453
1997 1 29.1507 0.909754 8.21789
2378 1 0.887351 1.57148 7.67527
2399 1 0.0753697 2.37002 7.2697
81 1 1.02294 2.65373 7.89432
82 1 0.476757 2.22638 8.52371
75 1 2.73294 2.17468 8.40554
144 1 1.88943 2.59038 7.26639
76 1 1.84651 1.81659 8.20637
68 1 4.01969 1.48016 7.30876
307 1 3.41457 2.37297 7.41957
79 1 3.96174 1.47857 8.43477
366 1 4.9736 1.82105 7.37325
450 1 5.4964 2.78646 7.22665
308 1 4.31932 2.46473 7.71174
707 1 6.68697 1.77732 7.97732
708 1 6.05253 1.9127 7.33239
452 1 6.03267 2.49795 8.15393
702 1 7.93742 2.50668 7.69503
703 1 8.43884 1.71256 8.27077
767 1 7.19138 2.40027 8.54217
676 1 9.2486 2.41578 7.2551
680 1 9.43371 1.87496 8.16923
1116 1 8.82716 2.83466 8.4557
1017 1 10.9494 1.58027 7.41745
1092 1 11.0517 2.78038 8.02174
1268 1 11.3489 1.80925 8.48661
1006 1 10.0381 2.65175 8.46987
1263 1 12.0921 2.28586 7.75006
1088 1 12.3165 1.43401 8.3637
1022 1 13.5874 1.48566 7.47624
1024 1 14.0304 1.45075 8.45763
1264 1 13.0069 2.30815 8.04982
1016 1 13.9048 2.83611 7.68066
1015 1 14.4666 2.03371 7.76986
1028 1 15.4933 1.8764 7.46974
962 1 15.0476 2.73031 8.2752
1027 1 15.2621 1.60172 8.40391
1365 1 16.5107 2.24387 7.28874
1345 1 16.3031 2.01782 8.24231
1346 1 16.958 1.51089 7.85289
1667 1 18.1273 1.64254 7.72304
1428 1 17.4022 2.84316 7.75074
1325 1 18.7006 2.53551 7.43067
1906 1 19.9023 1.92688 8.2022
1668 1 18.8915 1.4879 7.33905
1905 1 19.6473 2.09704 7.25301
1747 1 20.4138 2.78778 7.58944
1700 1 21.0547 1.94664 8.09416
1979 1 22.0563 1.71973 7.62754
1645 1 22.7593 2.46642 7.31739
1996 1 22.4077 2.3523 8.37416
2214 1 24.1562 1.90722 7.57536
2213 1 24.1677 1.98512 8.50874
2056 1 23.1504 1.67982 7.98107
1971 1 25.1662 1.60999 7.49003
1981 1 25.5008 2.44155 8.43817
2075 1 25.2347 2.7685 7.49132
1968 1 26.1922 2.2031 7.21486
1923 1 26.4712 1.84237 8.19343
2380 1 27.0456 2.6618 8.45705
2379 1 27.2831 2.45854 7.5021
1998 1 28.6593 1.82235 8.33888
2309 1 28.9365 2.78372 7.49501
2400 1 29.5688 2.41499 8.08305
72 1 1.35026 4.25608 8.27306
2472 1 0.272318 3.25489 7.90609
160 1 2.06089 2.9572 8.19064
159 1 2.14779 3.66914 7.56937
548 1 3.32715 4.0636 7.48281
524 1 4.10535 3.47511 7.93541
405 1 3.12459 3.56358 8.49185
523 1 4.99599 3.86725 8.09019
463 1 6.07335 3.80469 7.39947
791 1 7.02072 2.95953 7.53273
877 1 7.01857 4.15999 7.42581
378 1 5.98896 3.44546 8.50953
701 1 7.90194 3.41562 7.41231
784 1 9.38167 3.60184 7.5152
774 1 8.69382 3.85085 8.56263
1105 1 10.64 3.79579 7.32417
1095 1 11.5732 3.20242 7.2731
1091 1 11.5221 3.67212 8.17105
1099 1 13.1087 3.39526 7.70436
1512 1 14.1478 3.97394 7.9349
1511 1 14.8689 3.468 7.57873
1378 1 15.4703 3.96236 8.55813
1436 1 16.5206 3.16122 8.04995
1417 1 15.927 3.84815 7.44296
1518 1 17.4756 3.87932 8.29014
1517 1 18.3129 3.77219 7.92778
1748 1 19.6007 3.23072 7.82036
1669 1 19.0545 3.94499 7.29261
1284 1 19.7519 4.1527 8.53863
1682 1 21.0268 3.89374 7.72652
1681 1 20.6682 3.32772 8.43082
1985 1 21.5926 2.87624 7.55381
1755 1 22.4434 4.17981 7.67615
2059 1 21.8573 3.54862 8.29005
2060 1 22.7952 3.49026 8.55497
2071 1 23.9826 3.34669 8.29482
2093 1 23.4425 4.2488 8.18217
2072 1 24.4235 4.15951 7.92778
2057 1 25.6959 4.15897 7.86513
2076 1 26.139 3.21716 7.72346
2058 1 26.6054 4.16791 8.06581
2061 1 27.5225 3.4677 7.55646
2393 1 28.0944 2.8803 8.29221
2471 1 29.628 3.36093 7.14772
145 1 28.5892 3.77063 7.95949
2324 1 29.6475 4.27628 7.74873
2323 1 0.308136 4.89033 7.93159
140 1 1.03337 5.56914 8.26501
147 1 2.59393 4.94892 7.62324
148 1 1.7386 4.6015 7.35423
136 1 2.10747 5.15897 8.48107
153 1 4.20329 4.54615 7.69964
154 1 3.73303 5.33217 7.44506
533 1 4.9819 5.28359 7.45467
528 1 5.12951 5.23274 8.51658
527 1 5.86491 4.84172 8.08008
878 1 6.91981 4.42009 8.39895
850 1 6.64094 5.3954 7.5567
773 1 8.47325 4.29188 7.76145
444 1 7.63466 5.10008 7.73317
766 1 8.77203 5.38742 7.76703
848 1 9.60352 4.57578 7.77521
847 1 10.0516 5.3581 7.32138
1106 1 10.8821 4.6523 7.59703
787 1 10.9268 5.58779 8.15087
1108 1 12.1669 5.68344 7.3381
1107 1 12.187 5.07636 8.11339
1100 1 12.8035 4.31133 7.53427
1176 1 13.2041 5.31605 7.79653
1020 1 13.1853 4.52866 8.53977
1117 1 14.4306 5.64885 7.96117
1118 1 14.8477 4.74201 8.05685
1426 1 15.8224 4.77571 7.87839
1425 1 16.7162 4.45802 7.58118
1502 1 16.4152 5.55766 7.33733
1042 1 15.8437 5.68616 8.24411
1361 1 17.0621 5.26757 8.26945
1424 1 17.8743 4.31338 7.24008
1439 1 18.1766 4.91269 8.04156
1406 1 18.5466 5.69462 7.32783
1440 1 19.0875 4.80826 8.0874
1685 1 19.865 5.32601 7.48008
1687 1 20.0423 4.29897 7.53017
1746 1 20.8338 4.76822 7.15636
1745 1 20.7544 4.83534 8.08512
1749 1 21.6721 5.69192 7.77292
1756 1 21.8068 4.75272 8.07364
1683 1 22.7743 5.29978 7.74147
2136 1 24.4145 5.44752 7.91352
2004 1 25.4816 5.13783 8.19422
2074 1 25.579 5.68558 7.35995
2048 1 26.6568 5.29427 7.91928
2047 1 27.5081 5.49098 7.60347
2062 1 27.675 4.39312 7.5189
2476 1 28.3618 5.60494 8.05351
146 1 28.5033 4.62173 8.32598
2375 1 29.7177 5.57681 7.14903
2376 1 28.8878 5.0651 7.26436
2461 1 0.719658 6.80709 8.09635
2462 1 0.705975 6.31803 7.23443
470 1 2.81071 5.99818 7.26524
139 1 1.69805 5.79145 7.66751
174 1 2.32605 6.23379 8.28492
231 1 2.52189 7.06641 7.63851
232 1 1.61232 6.81159 7.32055
540 1 3.34701 6.29656 7.9965
519 1 4.20974 6.21214 8.51552
286 1 4.57281 6.48137 7.40347
534 1 5.60504 6.01163 7.47877
609 1 5.49525 6.95454 7.75239
535 1 5.90453 6.0687 8.5058
610 1 6.48165 6.74779 7.70302
560 1 7.47971 6.28266 8.11361
525 1 8.20655 6.32235 7.37713
1184 1 9.75126 6.09194 8.2641
1183 1 9.68042 7.09508 8.41072
858 1 9.09681 6.90413 7.38279
932 1 11.2761 7.04687 7.33048
931 1 11.5295 6.48172 8.04531
1187 1 12.569 7.10846 8.49833
1175 1 13.0004 6.24985 7.75916
1193 1 13.4551 7.10482 8.08258
1041 1 15.2948 6.13579 7.5846
939 1 14.3797 6.63736 7.46031
1253 1 15.007 6.62474 8.45969
1509 1 16.4063 6.7608 8.08428
1429 1 17.4628 6.28386 7.56863
1430 1 18.0229 5.97797 8.24651
1851 1 19.1957 5.89086 8.21241
1831 1 18.5911 6.82285 7.84036
1736 1 19.8691 6.4737 7.60973
1750 1 20.8449 5.84362 7.37191
1803 1 21.3712 6.78937 7.24319
2083 1 20.057 6.13212 8.54621
1809 1 20.5574 7.03576 8.09002
1804 1 22.1972 6.60667 7.69757
2135 1 24.0189 6.34526 7.86282
1814 1 23.2284 7.05245 7.81907
2073 1 24.9296 6.31066 7.19598
2152 1 25.089 6.25619 8.50883
2156 1 26.0921 7.13497 8.35942
2456 1 26.542 7.10907 7.18636
2086 1 26.2017 6.19463 8.17896
2154 1 27.9449 6.63817 7.26415
2153 1 27.1723 6.54484 7.82004
2463 1 29.7144 5.81631 8.21854
2475 1 28.7733 6.2669 7.5569
221 1 0.886077 7.74976 7.26576
311 1 0.516854 8.04046 8.15869
161 1 1.55019 7.78162 8.05774
318 1 3.86377 8.08172 7.67013
539 1 3.43163 7.21281 8.36269
317 1 2.95223 8.13678 7.79375
612 1 4.80487 7.58357 7.23957
619 1 4.46713 7.30173 8.25649
298 1 4.84174 8.39334 7.87623
297 1 5.75823 8.04774 7.70119
876 1 6.93413 7.76902 8.04188
614 1 7.76845 8.20762 7.4945
948 1 8.2845 8.22152 8.31058
875 1 7.70475 7.28668 7.77857
929 1 8.69518 7.22405 8.23071
692 1 9.37824 7.8975 7.63861
691 1 10.2127 7.57238 7.68263
942 1 11.273 8.39129 8.18864
869 1 10.8806 7.43371 8.4343
1244 1 12.0292 8.38991 7.22011
870 1 11.7307 7.5311 8.09479
1274 1 12.7834 7.84637 7.69724
1179 1 13.4842 8.54005 7.43788
1165 1 14.9586 8.2378 7.62272
1344 1 15.4032 7.16332 7.54066
1343 1 15.9705 7.99246 7.55346
1584 1 16.6105 8.0517 8.43202
1824 1 17.958 7.56182 7.27442
1510 1 17.2174 7.24906 7.92477
1587 1 17.1572 8.22499 7.29523
1910 1 18.7316 8.2371 7.91225
1832 1 19.3063 7.30182 8.12793
2147 1 21.2986 7.61152 7.82077
1828 1 20.0812 7.99754 8.04409
1880 1 22.4872 7.50982 7.30328
2225 1 22.2703 8.19344 8.28256
1760 1 22.1611 7.14613 8.5702
2150 1 24.0289 7.75111 7.68182
2143 1 23.38 8.50605 8.31976
2142 1 25.4837 7.24082 7.16552
2221 1 24.9478 7.3938 8.17399
2227 1 25.8841 8.50079 7.80414
238 1 27.907 7.78506 7.33202
2299 1 27.3081 8.44145 7.83275
2300 1 28.0227 8.03062 8.3746
237 1 28.7937 7.56171 7.62588
2408 1 29.8209 7.20711 8.45615
312 1 29.8334 7.76813 7.54738
2289 1 0.474391 9.64279 7.96892
2290 1 1.42249 9.88854 7.84462
63 1 2.67223 9.82447 8.01577
2526 1 1.57601 8.71789 7.66656
55 1 3.52631 9.25786 7.91752
387 1 4.31617 9.79806 7.30485
379 1 5.53756 9.15438 7.68246
629 1 4.68141 9.72285 8.38648
380 1 6.42002 9.5932 7.83255
626 1 7.32261 8.91059 8.27187
613 1 7.46009 9.11867 7.17049
687 1 8.42084 9.22015 7.77898
947 1 9.06132 8.6996 8.51803
688 1 9.39979 9.0852 7.6235
1243 1 11.2599 8.99097 7.26537
700 1 10.2102 9.86013 7.55499
941 1 10.47 8.76839 7.83602
1567 1 12.473 9.43316 7.60674
1004 1 11.7118 9.90092 8.23242
1273 1 12.5681 8.59346 8.33424
1180 1 13.3741 9.31463 8.1457
1321 1 14.428 9.7401 7.4976
1594 1 15.0699 9.67465 8.46593
1593 1 15.4622 8.80406 8.43107
1342 1 16.2806 9.00487 7.77282
1341 1 16.4655 9.89213 7.49822
1912 1 17.4872 8.68815 8.16252
1350 1 17.4381 9.70395 7.98583
1911 1 17.9975 8.93405 7.42346
1892 1 18.9617 9.82607 7.79151
1604 1 19.5871 8.87072 7.9041
2148 1 21.0879 8.58468 7.75937
1900 1 20.1921 9.79864 7.61809
2229 1 21.1133 9.79308 8.13414
1876 1 21.786 9.3021 7.27463
2232 1 22.2206 9.36084 8.26322
2231 1 22.8679 9.12461 7.52087
2205 1 24.1527 9.01624 7.82633
2206 1 25.0224 8.96473 8.24557
2215 1 26.8555 9.95416 7.82668
2484 1 25.868 9.68696 8.14581
2487 1 27.8423 9.40712 7.75241
2284 1 29.4516 9.65267 7.51777
2488 1 28.6775 9.52745 8.23336
2524 1 28.6524 8.67664 7.48812
2523 1 29.4681 8.66733 8.01018
3 1 0.567477 0.545 9.77067
65 1 0.941333 0.156715 8.83083
306 1 1.48983 0.955899 9.47972
11 1 2.45411 0.85128 9.60744
64 1 2.16845 0.0658546 8.82319
73 1 2.94048 0.934045 8.74064
639 1 3.47358 0.670846 9.97974
6 1 3.73461 0.105433 8.84282
77 1 4.0882 1.3663 9.46416
606 1 4.66308 0.804912 8.73429
386 1 5.44309 0.923735 9.44162
385 1 5.61759 0.231942 8.87931
712 1 7.14143 1.33916 8.80568
384 1 6.49957 0.886722 9.85892
389 1 7.2009 0.129116 9.09034
926 1 8.16629 0.0568119 9.47786
715 1 8.99829 0.656165 9.3193
1025 1 10.9261 0.942755 9.16875
1038 1 10.343 0.181096 9.83203
1026 1 11.234 0.00477092 9.16979
1262 1 11.8279 0.737253 8.79644
1592 1 13.081 0.725289 8.76534
1355 1 14.0004 0.66935 9.31585
966 1 13.0653 0.159728 9.72496
1030 1 12.9519 1.27869 9.93064
963 1 15.6987 0.563937 9.4797
1338 1 14.8903 0.65886 8.61378
964 1 15.0391 1.20418 9.49698
1577 1 16.0476 0.694328 8.62831
1357 1 16.7568 0.33763 9.48675
1329 1 18.0892 1.04055 8.6766
1330 1 17.2413 0.623907 8.58308
1358 1 17.7133 0.500317 9.63679
1758 1 19.3332 0.58422 9.00752
1618 1 18.7274 1.04592 9.867
1676 1 20.3369 0.687007 9.62641
1651 1 21.0755 0.480098 8.91104
1901 1 22.4924 1.14804 9.64921
2092 1 22.163 0.216417 9.13683
2238 1 23.1967 0.686787 8.58497
1915 1 22.8646 0.0927839 9.91326
2237 1 23.6024 0.809332 9.46023
1991 1 24.5919 0.968754 9.65225
1999 1 25.134 0.202338 9.20848
1989 1 25.3286 1.33685 8.63096
1935 1 26.1543 0.445197 9.7808
2483 1 26.4856 0.0142061 8.77415
2321 1 27.5146 1.04923 9.30814
2481 1 28.4206 0.984521 8.92714
2270 1 28.6008 0.882393 9.92104
2269 1 29.5407 0.950752 9.61611
2306 1 29.7678 0.0989691 8.81096
2482 1 28.7518 0.0794856 9.13507
157 1 1.37059 2.45902 8.99148
305 1 0.649269 1.49483 9.25355
478 1 2.2558 2.75377 9.30555
80 1 3.79189 2.47238 8.62405
395 1 3.01957 1.81126 9.51528
396 1 3.44782 2.66298 9.62846
454 1 5.09126 2.01201 8.61167
465 1 5.13002 1.82106 9.82521
472 1 4.61749 2.50389 9.3545
451 1 5.82807 2.5458 9.10267
383 1 6.21637 1.65812 9.33187
711 1 7.98205 1.4466 9.23532
950 1 7.42255 2.22237 9.76956
768 1 7.94906 2.76873 8.9968
713 1 9.26099 1.90147 9.25849
695 1 10.2639 1.71075 9.17219
1267 1 11.6814 1.66449 9.35826
1036 1 12.0972 2.49006 9.85153
1035 1 11.6005 2.72598 9.03107
1102 1 13.9474 2.40942 8.79771
1101 1 13.144 1.98384 9.0936
1340 1 13.9624 1.72288 9.66631
1044 1 13.0415 2.84974 9.87324
1339 1 14.649 2.34443 9.64775
1363 1 15.6519 2.5449 9.97819
1432 1 16.8529 1.50163 9.16483
1364 1 15.7749 1.93471 9.25754
1302 1 16.5341 2.56008 9.16195
1367 1 17.6036 2.53581 9.79153
1368 1 17.878 1.60193 9.52385
1431 1 17.3566 2.0912 8.58789
1285 1 18.5473 2.2893 8.6902
1757 1 19.2079 1.55443 9.0228
1606 1 19.8211 1.55255 9.73586
1286 1 18.5915 2.55998 9.58898
1610 1 19.5135 2.64503 8.89761
1605 1 20.4311 1.59557 9.00954
1696 1 20.4242 2.61001 9.89255
1699 1 21.0472 2.50347 8.85833
1693 1 21.6064 1.66186 8.96566
1995 1 22.4728 2.73298 9.21256
2055 1 23.2299 1.66747 8.92937
1902 1 22.8604 2.05241 9.82623
2069 1 23.3768 2.63845 8.85132
1992 1 24.0115 1.73723 9.84817
1982 1 24.9049 2.44442 9.14946
2008 1 25.5804 1.47949 9.92626
2080 1 26.7401 1.91404 9.2002
2079 1 25.9224 2.41673 9.49766
2322 1 27.6121 1.79778 9.83138
2390 1 27.6157 2.74248 9.28787
2243 1 28.5683 1.90879 9.56811
2249 1 29.6955 1.71415 8.81595
2250 1 29.745 2.52858 9.30561
158 1 0.795438 3.01572 9.6349
90 1 0.816514 3.55442 8.70887
132 1 0.030912 3.98154 9.03565
89 1 1.61825 3.54261 9.22231
416 1 2.5961 3.71547 9.5026
545 1 3.92723 3.55463 9.30408
471 1 4.99386 3.0735 8.65819
546 1 4.61145 4.11549 9.01053
543 1 5.35387 3.51978 9.54046
377 1 6.32229 4.03554 9.21603
468 1 6.60336 3.09932 9.61721
531 1 7.65196 3.77221 8.71727
786 1 7.43946 3.66331 9.94971
798 1 8.49471 3.48435 9.86881
1115 1 9.30915 3.31155 9.1304
1005 1 10.2633 2.9498 9.40754
1110 1 10.485 3.721 8.72905
855 1 10.5917 4.06243 9.69848
1058 1 12.0992 3.51388 9.6911
1019 1 12.4741 3.88252 8.63258
1047 1 13.0149 4.02329 9.59799
1031 1 14.0637 4.15767 9.00343
1032 1 13.5501 3.41495 8.69695
1051 1 14.0437 3.36771 9.85335
1437 1 15.1637 3.77212 9.8059
961 1 14.7193 3.28346 8.96917
1377 1 15.7813 3.20767 9.12352
1835 1 16.3039 4.09278 9.56981
1435 1 16.5364 4.02485 8.57339
1295 1 17.7673 3.67986 9.75476
1301 1 17.2757 3.11055 9.0592
1296 1 18.6924 3.55757 9.92322
1294 1 19.6863 3.52047 9.4767
1609 1 18.8062 3.32354 8.81087
1695 1 20.7529 3.58125 9.84553
2067 1 21.6679 4.12989 9.98552
2068 1 21.7055 3.57575 9.29504
1940 1 22.6433 3.68064 9.60994
2070 1 23.6692 2.94887 9.6579
2088 1 23.7132 4.0343 9.52587
2077 1 25.1926 3.44732 8.57842
2012 1 24.6703 3.6789 9.68547
2387 1 25.6997 3.72636 9.43943
2388 1 26.2113 3.50911 8.71079
2389 1 26.8275 3.25596 9.61521
2394 1 28.1245 3.69238 8.85765
131 1 29.2499 3.58857 8.87308
71 1 1.101 4.72324 9.05655
2464 1 0.181261 5.60985 9.0963
83 1 1.30232 5.42359 9.87773
2396 1 1.88995 4.67023 9.71303
226 1 2.80286 5.27529 9.60464
406 1 2.96355 4.48383 8.69619
135 1 2.96071 5.54574 8.59204
485 1 3.40748 4.38994 9.78078
551 1 4.00176 5.1724 9.26964
530 1 5.43783 4.6447 9.50299
529 1 6.15127 5.20611 9.29611
785 1 7.55847 4.4761 9.59025
532 1 7.91495 4.70359 8.62423
790 1 8.44371 5.453 9.09841
776 1 9.67253 4.2982 8.96458
795 1 8.69168 4.34737 9.47924
789 1 9.40421 5.42653 9.37027
775 1 9.92606 5.1839 8.58189
856 1 10.5518 5.01754 9.47953
1109 1 11.1003 4.51253 8.68848
1129 1 11.5498 4.68443 9.72377
1199 1 12.3296 5.53343 9.88289
788 1 11.5882 5.64624 8.87818
1130 1 12.3084 4.9057 9.20205
1111 1 13.5429 5.43297 9.01256
1112 1 13.717 4.90793 9.78047
1446 1 15.6138 5.38571 9.77454
1445 1 15.3043 4.71036 9.19759
1362 1 16.5098 5.07004 9.05562
1520 1 17.5684 5.31046 9.33506
1836 1 17.1991 4.33299 9.27572
1433 1 18.2323 4.75668 9.89853
1434 1 18.1779 4.34824 9.0174
1845 1 19.9884 5.49958 9.65868
1283 1 19.1058 4.53991 9.22212
1379 1 18.7309 5.66114 9.50155
1763 1 21.1356 5.36741 9.89878
1370 1 20.0286 5.06846 8.72145
1369 1 20.5318 4.46181 9.27905
1939 1 22.4288 4.36279 8.9922
1834 1 22.1345 5.05526 9.77339
1833 1 21.5219 4.79535 9.04099
2145 1 22.6285 5.44987 8.88848
2094 1 23.8711 4.79368 8.70407
1761 1 23.2311 4.7986 9.96373
2146 1 23.4728 5.67439 9.16989
2087 1 24.2815 4.79172 9.67093
2078 1 24.9396 4.32817 8.92979
2001 1 25.557 4.66096 9.81484
2151 1 24.7269 5.40789 8.9499
2329 1 26.822 4.66557 9.45864
2003 1 26.0172 4.61073 8.80679
2330 1 27.8 4.44547 9.522
2467 1 27.5759 5.11853 8.7212
2468 1 28.2558 5.47796 9.26067
86 1 29.3895 5.03606 9.65787
85 1 29.5304 4.89502 8.65402
2404 1 0.834358 6.50307 9.63014
230 1 1.83083 6.97412 9.33536
173 1 1.81451 5.93959 9.12326
225 1 2.60303 6.25667 9.71182
552 1 3.59625 6.03349 9.49215
520 1 4.07064 6.91901 9.14915
632 1 3.37661 7.05554 9.85455
536 1 5.17949 6.6025 8.8957
627 1 5.16057 5.76494 9.65486
954 1 6.16697 7.06834 8.73373
871 1 6.82096 6.22999 9.5316
872 1 5.89006 6.46989 9.65678
538 1 7.77899 6.69705 9.57691
930 1 8.3985 6.42479 8.63419
474 1 7.78133 5.72556 9.92116
559 1 7.44978 5.74954 8.891
554 1 9.1738 6.53508 9.47822
842 1 10.7066 6.2952 8.87191
841 1 10.2941 5.99973 9.73383
1276 1 10.2785 7.05159 9.42189
866 1 11.8398 6.59089 9.2067
865 1 12.6075 6.12049 8.74766
1196 1 13.3512 5.85737 9.98553
1194 1 13.6401 6.46895 8.76497
1530 1 14.1175 7.03298 9.67755
1195 1 13.1464 6.73082 9.58039
1596 1 15.3653 7.04092 9.3615
1120 1 14.5718 5.78244 9.05943
1046 1 16.3534 6.82641 9.40173
1045 1 16.7619 6.10277 8.97559
1830 1 17.8868 6.38666 9.38234
1852 1 18.9123 6.49459 8.94474
1846 1 19.9918 6.49443 9.4831
2084 1 20.9885 5.88286 8.59292
1810 1 21.1517 7.04831 8.84872
1817 1 21.8846 5.99363 9.41665
1818 1 22.6722 5.8602 9.95612
1759 1 22.5524 6.86371 9.40827
1813 1 22.9258 6.50256 8.57498
2132 1 24.0903 7.06063 8.59568
2131 1 23.695 6.70929 9.37553
2182 1 24.5633 6.0442 9.98775
2421 1 25.6712 5.78135 9.92476
2157 1 24.5581 7.13214 9.69868
2416 1 26.665 5.93178 9.86384
2155 1 26.2463 6.56744 9.13024
2085 1 27.045 5.97411 8.6421
2406 1 27.018 6.91845 9.96275
2470 1 28.0617 6.4563 8.74497
2469 1 29.0267 6.26591 8.8381
2494 1 28.7586 6.87724 9.63137
2478 1 29.8705 7.10627 9.51544
2477 1 0.668133 7.33469 9.00917
249 1 0.51787 8.20376 9.5138
250 1 1.32194 7.77103 9.78142
162 1 2.08663 8.30713 8.70107
229 1 2.45749 7.30828 8.66288
234 1 2.30209 8.19648 9.87722
310 1 3.11554 8.00578 9.21553
631 1 3.97149 7.78156 9.9208
620 1 4.10444 7.94167 8.93339
541 1 5.04031 7.45029 9.62652
601 1 5.36912 7.8898 8.68559
542 1 4.79676 8.36567 9.53924
953 1 6.26815 8.05252 8.81859
558 1 6.79131 7.45001 9.47779
557 1 7.08598 8.3313 9.18965
397 1 5.84975 8.52092 9.6241
537 1 7.5103 7.17043 8.76001
959 1 8.04334 8.18783 9.45333
960 1 8.50989 7.34255 9.39241
937 1 9.46033 7.7117 9.25441
882 1 11.0116 7.79177 9.39048
881 1 10.3372 8.15523 8.84989
1033 1 12.2604 7.5911 9.62991
1034 1 12.6169 8.46157 9.67467
1188 1 13.2293 7.67915 8.93841
1516 1 14.1078 8.08421 9.43279
1595 1 15.6375 7.4789 8.61918
1254 1 14.4984 7.41557 8.72297
1586 1 15.2972 8.13199 9.32246
1597 1 16.6012 7.86476 9.55326
1503 1 17.5861 7.60485 9.41426
1909 1 18.4808 7.68424 8.59769
1504 1 17.6198 8.54861 9.40961
1514 1 19.1787 7.29816 9.581
1908 1 18.6537 8.25037 9.66702
1822 1 19.5018 7.97218 8.89256
1821 1 20.3479 7.58054 9.28457
1842 1 21.8908 7.46671 9.9152
2226 1 21.6153 8.31899 8.99837
2239 1 22.8765 7.89669 9.87978
2144 1 23.0468 7.73043 8.82497
2081 1 23.786 8.26488 9.48112
2222 1 24.5714 8.18846 8.688
2158 1 25.3645 7.46741 9.19484
2492 1 26.923 8.18826 8.75685
2405 1 26.4994 7.51724 9.36354
2228 1 25.9228 8.33167 8.71074
2490 1 26.0082 8.56162 9.96793
320 1 27.769 7.4344 9.50157
2485 1 28.7144 7.24217 8.58663
2486 1 28.8131 7.86277 9.28806
2407 1 29.7047 8.07029 8.81476
2480 1 0.264832 8.89106 8.77151
314 1 1.53831 9.85486 9.70104
313 1 1.46765 9.05271 9.20801
233 1 2.4818 9.10967 9.73036
56 1 2.99806 9.09746 8.72065
392 1 4.1808 9.66287 9.74796
5 1 3.05968 9.95124 9.4968
309 1 3.64466 8.70922 9.51477
602 1 5.56608 8.87311 8.64036
630 1 4.32744 8.9341 8.77518
327 1 5.15803 9.4498 9.54686
328 1 6.08588 9.63098 9.71207
561 1 6.5587 9.14449 8.83402
562 1 6.96757 9.2002 9.66635
625 1 7.77824 9.21564 9.01541
925 1 8.68849 9.73009 8.75994
716 1 9.40469 9.9027 9.43647
938 1 9.60186 8.68616 9.41449
893 1 8.64669 9.086 9.6043
934 1 10.342 9.57689 8.81005
1037 1 10.2267 9.27887 9.97327
1003 1 12.5733 9.82326 8.65941
1272 1 11.6283 9.04637 9.06312
1590 1 13.5879 8.97547 9.15112
1515 1 14.4927 8.83952 8.92753
1351 1 14.7801 9.78734 9.48902
1352 1 15.548 9.28085 9.55049
1523 1 16.6721 9.22258 9.81395
1583 1 16.4246 8.85514 8.95622
1578 1 16.525 9.86309 8.66278
1546 1 18.4079 9.57629 9.68307
1674 1 18.3196 9.99064 8.69421
1907 1 18.5296 8.70465 8.80194
1673 1 17.5428 9.55596 9.03035
1602 1 19.5937 8.85742 9.4262
1601 1 19.1622 9.4882 8.84864
1827 1 20.3953 8.653 8.62688
2230 1 21.3096 9.28733 8.97676
1680 1 20.7312 9.78635 9.75776
1679 1 20.2557 9.67799 8.93135
2091 1 21.7906 9.69783 9.82479
1929 1 23.8545 9.60537 9.76514
2082 1 22.9965 8.83598 9.57113
2212 1 23.2872 9.75818 8.95112
2211 1 24.2458 9.48212 8.78116
2000 1 25.6255 9.43304 9.26883
1928 1 26.5958 9.26317 9.57407
2491 1 26.9328 9.09997 8.57987
2320 1 27.5005 9.96239 9.70001
244 1 27.7023 9.99137 8.70326
243 1 27.9045 9.10644 8.90389
2479 1 29.3994 9.08945 8.90108
2418 1 29.1345 8.92402 9.92692
247 1 29.766 9.7111 9.79544
ITEM: TIMESTEP
11000
ITEM: NUMBER OF ATOMS
2532
ITEM: BOX BOUNDS pp pp pp
0.0000000000000000e+00 3.0000000000000000e+01
0.0000000000000000e+00 1.0000000000000000e+01
0.0000000000000000e+00 1.0000000000000000e+01
ITEM: ATOMS id type x y z
4 1 0.920956 0.2429 0.581955
7 1 2.20157 1.08536 1.36107
8 1 1.96332 0.705689 0.490619
403 1 4.20049 1.27516 0.912194
640 1 3.17228 0.495239 0.894141
376 1 4.29265 0.12474 0.817608
461 1 5.32725 0.130897 0.796728
404 1 5.13263 1.26594 0.804713
375 1 4.75573 0.539834 0.0877421
944 1 6.53355 0.177301 0.546187
705 1 6.65056 1.17028 0.91475
706 1 7.41049 0.588236 1.15481
949 1 7.48803 1.38005 0.185131
943 1 7.36774 0.319626 0.0566959
720 1 8.37566 0.858413 0.495818
719 1 9.20901 0.380639 0.413144
1039 1 9.71977 1.21452 0.0113553
1040 1 10.6684 1.3078 0.152929
890 1 10.1557 0.805425 0.996683
1209 1 11.5877 0.223273 0.172211
974 1 12.1223 1.08437 0.464356
662 1 11.6714 0.531578 1.36851
973 1 12.0882 1.39865 1.36273
965 1 13.4331 0.341111 0.593619
1029 1 13.0945 1.25196 0.879213
1289 1 14.1108 0.969232 1.39705
1356 1 14.3765 0.550444 0.21903
1211 1 15.1606 0.0470112 1.07713
1282 1 15.8071 0.944705 0.591157
1543 1 17.1795 1.07749 0.298736
1298 1 17.6942 1.26793 1.25001
1617 1 18.2294 0.695245 0.652348
1544 1 17.3298 0.135003 0.517862
1843 1 19.2481 0.131842 0.146407
1613 1 19.2863 0.424957 1.14334
1614 1 19.3744 1.3405 1.10314
2065 1 20.2731 0.52403 0.70875
2066 1 21.1492 0.060446 0.685784
1675 1 21.0073 1.12348 0.241233
1916 1 22.3268 0.248764 0.704744
1612 1 21.5258 1.24052 1.23739
2009 1 23.2435 1.06201 0.404799
2236 1 23.954 0.549306 1.01166
2235 1 24.5784 1.31382 0.935537
1988 1 25.4645 0.867309 0.714828
1987 1 26.396 0.670564 0.980175
1936 1 26.8386 1.06345 0.13813
2496 1 27.6538 0.697139 0.649448
2495 1 28.2165 0.087288 1.22455
2246 1 29.4209 1.21432 0.5292
2245 1 28.7313 1.38801 1.17267
2265 1 29.1713 0.211125 0.558599
91 1 0.677452 2.08088 0.203827
12 1 2.13241 1.56499 0.0161746
14 1 1.51265 1.6919 1.06149
13 1 1.9455 2.55602 1.03936
477 1 2.52898 2.60166 0.228985
96 1 3.0963 2.51444 1.15772
330 1 4.28556 2.26727 1.14755
95 1 3.01623 1.6308 0.763675
78 1 4.09944 2.03582 0.18992
475 1 5.61278 2.28542 1.07241
466 1 5.09486 2.71118 0.265629
476 1 6.02962 1.92196 0.324387
651 1 6.75267 2.54081 0.796357
718 1 8.3922 2.69388 0.525547
731 1 8.00569 1.65143 1.06639
717 1 9.00554 2.16159 1.06225
733 1 9.68829 2.41101 0.0766313
714 1 8.80169 1.80531 0.0354551
800 1 10.7294 2.71237 0.566941
664 1 10.5827 1.76046 1.19598
969 1 12.5519 2.03461 0.63682
970 1 11.6128 2.089 0.699123
647 1 14.0331 1.9637 0.708412
1281 1 14.9661 1.43631 0.516221
1307 1 16.4236 1.92127 0.176055
1297 1 16.731 1.67253 1.26866
1308 1 15.7959 2.14199 0.877399
1461 1 16.7372 2.64578 0.872427
1387 1 18.5402 1.75157 0.582153
1388 1 17.7213 2.21315 0.784669
1384 1 19.1819 2.607 1.14467
1621 1 20.2336 1.81109 0.629645
1616 1 21.1963 2.48328 0.963709
1703 1 21.6035 1.93275 0.0676201
1704 1 22.2583 1.52837 0.656227
2010 1 23.4776 1.44279 1.22181
1678 1 24.0406 2.34429 0.781885
1934 1 22.9797 2.57725 0.679224
1677 1 24.6691 2.65207 1.37593
2007 1 25.6932 1.96405 0.773718
2023 1 24.8397 2.54431 0.120945
2253 1 26.6679 2.38629 0.324989
2254 1 27.0854 1.7419 0.915388
2248 1 28.0285 2.30889 0.677541
92 1 29.9238 2.65287 0.255721
16 1 29.734 2.04937 1.09815
2244 1 29.0769 2.14596 0.341641
2411 1 0.244093 4.11259 0.0813262
2395 1 1.23603 4.08695 0.110433
2397 1 0.855094 2.98649 0.782189
163 1 2.048 3.43629 0.467741
98 1 2.28779 3.4768 1.42156
415 1 3.13387 3.59927 0.363196
393 1 3.69835 3.37024 1.34097
394 1 4.00185 3.02032 0.445131
329 1 4.71668 3.01666 1.40479
544 1 4.97859 3.66575 0.456172
459 1 5.88878 4.2631 0.553609
417 1 6.01354 3.69308 1.38425
467 1 6.23032 3.32013 0.474768
722 1 7.76249 3.8237 1.35271
797 1 8.40077 4.17101 0.53141
734 1 9.70203 3.01372 0.913534
793 1 8.82163 3.42552 1.05111
859 1 9.54902 4.07696 0.166984
799 1 10.8381 3.65605 0.723116
1057 1 12.2987 3.98508 0.55662
740 1 12.075 3.2064 1.34699
1043 1 13.1929 2.9815 0.797226
1053 1 13.9468 3.59418 1.29111
1062 1 13.0552 4.02084 1.36053
1048 1 13.5244 4.17605 0.423222
1052 1 14.4839 2.91985 0.587162
1065 1 15.1611 4.0065 1.14723
1450 1 15.5747 3.11037 1.01501
1462 1 16.4196 3.24046 0.167882
1776 1 17.0745 3.90972 0.497551
1396 1 18.1561 3.17849 1.04504
1293 1 19.3956 2.93526 0.184696
1708 1 19.5245 3.8151 0.865075
1707 1 20.2984 3.22501 0.878495
1933 1 22.2393 3.04081 0.451279
1762 1 22.8013 4.05269 0.549382
1780 1 21.7067 3.54248 1.27461
2006 1 24.1359 3.35664 0.729943
2024 1 25.5933 2.94088 0.625721
2011 1 25.0174 4.01356 0.550822
2410 1 26.3431 4.07694 0.217528
2346 1 26.5591 3.28713 0.935405
2018 1 26.0311 4.2525 1.20956
2313 1 27.4623 3.20775 0.538457
2409 1 27.261 4.26686 0.480948
2314 1 28.1039 3.58146 0.0623796
2345 1 27.2344 3.69913 1.42654
2318 1 29.2125 4.15804 0.122081
2317 1 29.0215 3.59102 0.834876
2398 1 29.9609 3.08196 1.12394
2331 1 29.9618 4.11784 1.24296
2412 1 0.459472 5.02119 0.213377
88 1 1.168 5.00484 1.06344
164 1 2.38923 4.32138 0.70007
84 1 2.05741 5.4482 0.375957
156 1 3.18929 5.44886 0.549161
155 1 3.41967 4.53338 0.829917
481 1 4.27829 5.46443 0.494057
401 1 5.19831 4.76291 1.38316
628 1 5.46433 5.34849 0.422871
486 1 4.32882 4.36343 0.0722679
721 1 7.05217 4.36766 1.05294
549 1 6.52656 5.31456 1.32039
550 1 6.79408 5.44495 0.429602
460 1 6.69655 4.37391 0.122987
473 1 7.85376 5.06172 0.614133
867 1 8.81944 5.63849 1.21908
796 1 8.83958 5.00849 0.181382
802 1 11.2725 5.64564 0.153316
1186 1 10.6486 5.45414 0.996234
860 1 10.0821 4.80955 0.435317
1200 1 12.77 4.8561 0.349646
1221 1 11.7622 5.11488 0.877931
1114 1 13.7508 5.19446 1.0491
992 1 14.8625 5.05871 0.84774
1438 1 14.5751 4.36308 0.175927
1372 1 16.7503 4.93379 0.202173
991 1 15.8391 4.84353 0.835822
1452 1 16.9453 5.47905 1.1489
1451 1 17.0021 4.50104 1.24466
1519 1 17.5252 5.53356 0.212147
1775 1 17.8977 4.34025 0.840225
1380 1 18.9808 5.45761 0.407008
1698 1 19.8677 4.94739 1.10478
1697 1 20.1973 4.58379 0.330042
1691 1 21.1922 4.3663 1.01585
1692 1 20.906 5.25461 0.961244
2013 1 22.2359 4.60997 1.3061
1767 1 22.4351 5.65108 1.05522
2005 1 23.9314 4.31817 0.622741
2106 1 23.1736 4.99488 1.09733
2104 1 24.1639 4.9951 1.32555
2017 1 25.2275 4.74929 1.32493
2002 1 24.9453 5.19778 0.390779
2422 1 26.0243 5.28155 0.583811
2328 1 28.2547 4.37581 1.17544
2460 1 27.3432 4.76796 1.30669
2392 1 27.6387 5.43861 0.011453
2391 1 28.45 5.18617 0.395345
2332 1 29.6522 4.98197 0.880198
87 1 0.734329 5.82368 1.29223
2403 1 0.294975 6.25072 0.377124
152 1 0.727491 7.1043 0.463328
171 1 1.45994 6.31658 0.580538
175 1 2.46323 5.9852 1.14627
172 1 2.10658 6.90453 0.361562
176 1 3.11285 6.58293 0.666847
482 1 4.3155 6.41751 0.423368
487 1 5.39241 6.8319 0.647182
488 1 5.92981 6.14124 0.956042
563 1 6.75259 6.92434 0.464517
810 1 7.62667 6.48302 0.684725
868 1 8.62172 6.25429 0.482759
863 1 9.57652 5.82942 0.420707
806 1 9.23407 6.89259 1.25132
553 1 9.39222 6.92866 0.272496
864 1 10.2844 6.41686 0.698458
1123 1 10.9808 6.94884 1.16606
955 1 11.2903 6.81208 0.0582548
801 1 11.4613 6.15238 0.997838
956 1 12.2423 6.51864 0.272697
1143 1 13.0816 6.51451 1.1971
1529 1 13.9897 6.93647 0.589073
1113 1 14.1884 6.00367 1.25306
1119 1 14.6376 5.8831 0.0121211
1443 1 15.5128 5.93959 0.794556
1218 1 15.182 6.74932 0.380686
1131 1 14.9245 7.02713 1.33979
1444 1 16.3241 6.46541 0.813372
1371 1 16.5923 5.86896 0.00124241
1442 1 17.3896 6.58232 1.17378
1441 1 18.2333 6.18842 0.775018
1829 1 17.4826 6.76026 0.143723
1777 1 19.7256 6.00229 1.09235
1837 1 19.8659 7.07524 0.451058
1513 1 19.0895 6.46651 0.0283555
1840 1 21.2978 6.03299 1.39866
1839 1 21.2274 6.99659 1.14329
1764 1 20.5162 5.98595 0.39128
1841 1 21.6328 6.61761 0.280728
2105 1 23.4857 5.75111 0.45732
1849 1 23.0952 6.76323 0.870987
2096 1 24.2406 6.13289 1.24361
2181 1 25.0991 6.56426 0.720463
2415 1 27.0737 6.21827 0.676198
2185 1 25.9499 7.11742 0.195422
2186 1 26.1096 6.6477 1.00286
2401 1 28.0156 5.77239 1.30759
2423 1 27.6914 7.02373 0.759855
2493 1 28.1381 6.33246 0.0480876
177 1 28.746 6.61519 0.795408
2473 1 29.4165 5.96864 0.922978
2474 1 29.0977 6.04195 0.0190217
178 1 29.5733 7.01169 0.530682
151 1 1.23231 7.42227 1.2124
2504 1 0.708497 8.15765 0.501593
242 1 1.40601 8.4348 1.16918
246 1 2.21031 7.87342 0.822078
634 1 3.12287 8.44044 0.40536
633 1 3.25422 7.56071 0.898494
257 1 4.44949 7.32871 0.803938
258 1 4.28661 8.05211 1.42412
638 1 5.22064 8.25499 0.513505
398 1 6.03733 7.68084 0.0778177
381 1 6.92645 8.30025 0.176676
564 1 6.61207 7.7201 0.914113
958 1 8.37371 7.2508 0.78813
957 1 7.63955 7.54835 0.148706
657 1 7.81256 8.14066 0.929425
809 1 7.44798 7.24486 1.26196
902 1 9.38805 7.83668 1.09944
894 1 8.90141 8.20901 0.0631655
952 1 10.5179 7.99536 1.23091
1275 1 10.2358 7.80453 0.0537021
1280 1 11.5628 7.71177 0.639793
1279 1 11.5348 8.55893 1.07525
1354 1 13.0256 7.87271 0.737393
1353 1 13.9241 8.23598 0.846515
1217 1 14.8452 7.63317 0.442797
1232 1 14.8636 8.28901 1.33527
1521 1 15.8638 7.5493 1.09577
1598 1 16.7064 7.32776 0.348993
1525 1 16.5638 8.30301 1.06701
1585 1 15.8058 8.04536 0.0344021
1447 1 18.3925 7.37538 0.280266
1448 1 18.1286 7.28777 1.23779
1599 1 18.4719 8.18904 1.34457
1528 1 17.8709 8.25039 0.429111
1600 1 19.1828 8.03571 0.740358
1913 1 20.4451 7.81617 1.14471
1917 1 20.1017 8.20269 0.224061
1838 1 20.7879 7.21415 0.127751
1766 1 21.5587 8.23849 1.09642
1765 1 21.9981 8.43971 0.238578
1850 1 22.9289 7.5513 1.33369
2240 1 23.686 7.52515 0.127256
2159 1 23.6339 8.46204 0.645688
2160 1 24.3421 7.85739 0.870421
2163 1 25.1365 8.06327 0.164002
2315 1 25.8121 7.7836 1.23027
2489 1 26.4783 8.0104 0.590036
2424 1 26.9055 7.28067 1.25758
272 1 27.5958 8.01165 1.03278
267 1 28.394 8.00353 0.214618
319 1 27.2827 8.16594 0.00125054
268 1 28.9945 7.81163 1.03401
2503 1 29.9907 8.10141 1.07359
2417 1 29.55 8.11902 0.159967
240 1 0.0295444 9.88971 1.18265
241 1 0.616462 8.99122 1.05901
248 1 0.59796 9.32714 0.0350132
9 1 2.67531 9.62894 0.502343
245 1 2.29249 8.76394 1.08687
322 1 1.57374 9.50562 0.816347
321 1 1.50656 8.79799 0.215471
10 1 3.23611 9.27855 1.1725
462 1 5.6352 9.23487 0.999502
391 1 4.51619 9.09359 0.360495
573 1 4.35816 9.34205 1.36362
382 1 6.6099 9.09707 0.630609
891 1 7.52048 9.21592 1.06777
658 1 8.38166 8.7878 1.41346
650 1 8.5148 9.63279 0.721287
892 1 7.91869 8.89455 0.220921
649 1 9.22012 9.05264 0.435687
883 1 9.83617 9.77632 1.08981
1210 1 10.9838 9.74091 0.724635
951 1 10.4061 8.88465 0.985688
1203 1 12.8538 8.8191 0.881911
1259 1 12.2477 9.73712 1.0435
1260 1 12.2289 9.42505 0.154397
1271 1 11.435 8.6245 0.00744192
1204 1 13.6089 9.24403 1.33534
1589 1 13.7218 9.25543 0.056152
1347 1 15.3951 9.11101 0.659643
1348 1 14.6712 8.67398 0.188742
1212 1 14.489 9.48554 0.767329
1524 1 16.2902 9.94762 0.353018
1291 1 16.9809 9.61236 1.39138
1527 1 17.628 9.12672 0.184609
1844 1 19.8364 9.46251 0.415508
1545 1 18.7899 9.03922 0.378214
1847 1 19.063 9.44691 1.32229
1918 1 20.8534 8.85554 0.303456
1914 1 20.1014 8.71442 1.07694
2234 1 21.8457 9.29857 1.14887
2233 1 22.6515 9.29973 0.484588
1857 1 22.8493 9.83743 1.3818
1930 1 23.7293 9.44366 0.734098
1942 1 24.9717 9.78643 0.0428837
2164 1 24.5442 8.8288 0.279486
2316 1 25.6192 8.72709 1.06754
2319 1 26.9049 9.95814 0.418349
1927 1 26.7424 9.01372 0.575812
1941 1 25.7296 9.71866 0.666153
271 1 27.9561 8.92926 0.788357
2266 1 28.3567 9.91983 0.162935
239 1 29.7057 9.11098 0.833549
256 1 0.677253 0.461589 1.71929
119 1 0.692168 1.33647 2.10438
120 1 1.65467 1.08911 2.29835
19 1 1.63719 0.152515 1.70742
574 1 3.86666 0.120996 1.75447
266 1 3.00238 0.517262 2.35276
399 1 5.07251 0.022669 1.83753
412 1 5.63534 1.03903 2.45162
346 1 4.78366 1.05167 1.83743
400 1 6.00268 0.327812 1.55452
337 1 6.83307 0.927904 2.13348
578 1 6.29756 0.240786 2.61889
646 1 8.37814 0.75802 1.56093
568 1 7.72893 0.417418 2.39268
900 1 8.89918 0.372347 2.55972
741 1 9.74651 0.510295 2.12365
645 1 9.09497 1.37398 1.74889
661 1 11.2296 1.22146 1.84352
889 1 10.6861 0.264101 1.55697
655 1 10.625 0.595053 2.59204
987 1 11.5627 0.356806 2.31974
976 1 12.5403 0.763322 2.00593
967 1 13.9598 0.247218 2.31956
1288 1 14.9345 0.5788 1.92107
1287 1 15.7351 1.1157 1.69485
1555 1 16.5995 0.979613 2.32306
1565 1 16.9095 0.0372189 2.42815
1292 1 16.2858 0.184809 1.56467
1566 1 17.5123 0.33297 1.77033
1607 1 19.5012 0.925596 2.16397
1608 1 18.5772 1.19676 1.90442
1626 1 20.119 0.201607 1.65022
1611 1 21.1537 0.922463 2.03528
1622 1 20.3866 1.33507 1.45476
1882 1 20.3518 0.378226 2.76164
1858 1 22.2531 0.425215 1.83858
2172 1 23.2403 0.672362 2.01603
2171 1 23.9396 0.0579653 2.20041
2184 1 23.0404 0.0351176 2.84339
2161 1 24.5508 0.733382 1.80603
2019 1 25.6206 0.227609 1.82656
2020 1 25.3172 0.642289 2.60776
2261 1 26.7391 1.30296 1.82568
2262 1 25.8376 1.19987 1.64496
2271 1 26.9818 0.0946763 2.40039
2272 1 26.1069 0.00578153 2.82375
2333 1 26.4495 0.912318 2.76389
2349 1 27.7528 1.34077 1.5074
2350 1 27.8727 0.80727 2.32609
255 1 29.9035 0.960874 1.52553
288 1 29.1274 0.844677 2.32311
28 1 0.717588 2.27759 1.59888
2260 1 2.74564 1.93367 1.98938
37 1 1.76176 2.1494 2.29709
2259 1 3.58354 1.5885 1.77422
413 1 3.68093 2.52019 2.06969
345 1 5.00283 1.9164 1.80809
411 1 6.01027 1.45514 1.66718
333 1 5.82902 2.57737 2.00075
334 1 6.44261 2.53202 2.68659
652 1 6.93062 2.03835 1.56746
732 1 8.01064 2.50908 1.45081
816 1 7.66289 1.65409 2.32157
815 1 7.5589 2.59965 2.39591
659 1 8.58125 2.70551 2.38286
730 1 9.51525 2.42577 2.63524
779 1 11.3221 2.419 1.68097
729 1 10.1209 2.76779 1.94872
780 1 10.9219 2.05719 2.49991
663 1 10.0718 1.66018 2.01603
739 1 12.4728 2.34683 1.62054
908 1 12.1759 1.74911 2.56733
977 1 11.8135 2.72477 2.60306
648 1 13.7111 2.29062 1.52735
989 1 13.2781 1.77129 2.38104
990 1 14.1743 1.68065 2.75643
1067 1 12.8709 2.66054 2.78263
1050 1 13.8427 2.68953 2.44284
1290 1 14.5906 1.7843 1.5937
972 1 15.1944 1.62897 2.49826
971 1 15.3918 2.5082 2.57939
1299 1 16.2431 2.01048 2.34205
1455 1 16.9414 2.82396 1.92889
1300 1 16.9211 2.4542 2.8246
1556 1 17.3008 1.72161 2.07675
1395 1 18.0818 2.53174 1.77518
1306 1 19.0214 2.03697 2.43005
1632 1 20.0757 1.82315 2.42539
1706 1 21.0513 1.81753 2.84037
1615 1 21.0578 2.18941 1.85152
1303 1 20.2141 2.5058 1.67868
1374 1 22.0381 1.51264 2.46035
1937 1 21.911 2.54602 2.34397
1938 1 22.4181 2.29866 1.5826
1373 1 22.9686 1.63101 2.16871
1629 1 23.4684 2.68971 1.59086
2162 1 24.7661 1.59725 2.08677
1932 1 25.2709 2.48321 2.22109
2015 1 26.2268 2.28299 1.60217
2353 1 26.2023 2.69551 2.62842
2339 1 25.7223 1.73987 2.70988
2016 1 27.1617 2.5193 1.65541
2247 1 28.1531 2.25534 1.67335
2288 1 27.3352 1.83324 2.49099
15 1 29.3841 1.82485 1.96144
2342 1 28.7734 2.69768 2.38978
2341 1 29.0334 2.68766 1.43578
27 1 1.26458 3.02054 1.77535
2432 1 0.346303 4.12203 2.47035
105 1 2.84941 3.24395 2.57503
106 1 2.03378 3.7604 2.64857
97 1 2.97645 4.08098 1.79364
498 1 4.171 3.52458 2.35111
484 1 5.20619 2.86145 2.81131
402 1 5.06841 3.92903 1.806
332 1 5.93869 3.98861 2.85146
418 1 6.69889 3.06652 1.68748
746 1 7.9619 3.45496 2.55044
794 1 9.28042 4.225 1.48268
817 1 8.64201 4.22649 2.80364
660 1 9.29424 3.32744 2.09257
818 1 9.58916 4.25091 2.79504
723 1 10.265 3.76289 2.01794
744 1 10.8908 3.20365 2.57357
725 1 11.3248 3.9834 2.15775
1073 1 12.752 4.2517 2.31106
1049 1 13.997 3.62885 2.53958
1061 1 13.1484 3.21169 1.89971
1054 1 14.6928 3.15454 1.57124
1066 1 15.3353 3.76297 2.06027
1449 1 16.2564 3.55336 1.5012
1375 1 16.2844 3.35666 2.49327
1456 1 17.3345 3.58702 1.54803
1479 1 17.1495 4.16996 2.38489
1399 1 17.9895 3.3812 2.47115
1383 1 19.435 3.16106 1.88119
1459 1 19.4733 4.20347 1.81126
1386 1 19.3994 3.69558 2.83065
1460 1 20.3308 3.97027 1.52364
1304 1 20.5603 3.16225 2.3327
1874 1 22.8043 2.9543 2.74289
1779 1 21.4379 4.06005 2.03875
2034 1 22.8496 3.66407 1.87192
2033 1 22.27 3.84456 2.63007
2098 1 23.8046 3.89063 1.62581
2097 1 23.5822 3.99502 2.54389
1630 1 24.0717 2.94223 2.34681
2021 1 25.5479 3.37393 1.64312
2099 1 24.6989 4.07895 2.01378
2022 1 26.0024 3.94746 2.27196
2336 1 26.9573 3.7785 2.45862
2326 1 28.2827 3.47483 1.59406
2051 1 27.6727 2.96327 2.36274
2325 1 28.2211 3.77369 2.47859
2430 1 29.697 3.25702 2.10432
2429 1 29.1744 4.09648 2.10334
100 1 1.01454 4.86332 2.0894
99 1 0.113052 5.0553 1.86463
165 1 2.2466 4.78766 2.4951
166 1 2.3899 5.09652 1.56432
479 1 3.90828 4.71476 2.75052
507 1 4.12703 4.84461 1.75161
110 1 3.11004 5.41978 2.46289
508 1 4.67971 5.4351 2.25399
422 1 4.83027 4.40318 2.65644
635 1 5.72844 5.38206 2.06831
430 1 6.77553 5.19087 2.3445
636 1 6.02243 4.50836 1.94152
727 1 7.55284 5.34428 1.49929
429 1 7.42656 4.43208 2.22026
728 1 8.37703 4.81638 1.52534
807 1 9.85269 5.06984 1.83127
1136 1 9.13565 5.32158 2.65353
724 1 10.5835 4.45956 1.44588
1185 1 11.1888 5.52715 1.79282
808 1 10.5064 4.78393 2.46627
726 1 11.6572 4.69085 2.59616
1222 1 12.1575 5.13042 1.74404
1197 1 14.025 4.7874 2.65834
1198 1 14.246 4.63925 1.75521
1138 1 12.9105 5.64396 2.71171
1465 1 15.0679 5.27637 1.97055
1471 1 15.9532 5.61809 1.59313
1472 1 16.6357 5.29849 2.20852
1457 1 15.7871 4.85088 2.57642
1533 1 17.866 5.27138 1.52911
1534 1 17.5691 5.09564 2.32576
1470 1 18.5001 5.69335 2.63615
1469 1 19.1203 5.41572 1.9758
1728 1 18.6048 4.50501 2.16625
1711 1 21.1975 4.96777 1.85798
1393 1 20.342 4.72435 2.37239
2014 1 22.8032 4.65904 2.05994
1712 1 21.9892 5.39169 2.16842
2103 1 23.8653 4.99458 2.27503
2110 1 24.9876 5.07327 2.33363
2459 1 27.0628 5.25144 2.03398
2090 1 26.1105 5.709 1.55764
2109 1 25.9459 5.02483 2.48528
2327 1 28.1572 4.78877 2.00624
2402 1 28.8418 5.66518 1.87847
186 1 29.4131 4.84944 2.75852
170 1 0.446583 6.84106 1.47358
2425 1 1.28372 5.88089 2.19853
169 1 0.326898 6.26262 2.23364
2426 1 1.64397 6.53594 1.58181
168 1 2.60714 7.1259 1.6313
263 1 2.1878 6.31648 2.63398
182 1 3.71578 6.8594 1.48345
109 1 2.99161 6.24867 1.96109
181 1 3.98088 5.96206 1.42941
492 1 4.17378 6.50762 2.38708
493 1 5.24641 6.25839 1.73349
494 1 5.17461 6.33738 2.70673
491 1 4.73891 7.12248 1.86754
495 1 6.19721 6.97515 2.63476
496 1 6.43717 6.05525 2.59827
813 1 6.89829 6.3666 1.44735
874 1 8.39054 5.79926 2.14503
814 1 7.48333 6.27319 2.20146
873 1 8.23282 6.68705 1.70406
805 1 9.24085 6.24018 1.97349
862 1 10.3237 6.39933 1.81759
1278 1 11.3185 6.39729 2.14444
861 1 10.2617 6.85383 2.69897
1128 1 12.4379 6.67 2.09479
823 1 11.908 5.91785 2.80719
1144 1 13.2868 5.71637 1.76899
1127 1 13.3941 6.63581 2.33062
1466 1 15.1652 6.2372 1.98734
1215 1 14.391 6.96314 2.62316
1147 1 14.3143 5.82038 2.5954
1141 1 16.0543 6.634 2.12793
1482 1 17.1252 6.18944 2.39312
1772 1 17.4777 7.12908 2.12794
1771 1 18.0694 6.40388 1.8816
1484 1 19.0772 6.54137 1.83565
1770 1 19.7224 6.1308 2.54199
1483 1 18.9217 6.75472 2.76041
1769 1 20.5284 6.65829 2.58744
1778 1 20.3774 5.72443 1.76053
2032 1 22.7151 6.52741 2.44007
1784 1 22.1928 6.67988 1.49354
1783 1 21.6075 6.6957 2.27517
1768 1 23.1426 5.78944 1.74697
2166 1 23.5055 7.11531 2.57695
2165 1 23.9255 7.12452 1.70688
2089 1 25.4939 5.99094 2.26536
2095 1 24.3413 6.14958 2.27711
2420 1 26.2755 6.79771 2.01422
2419 1 27.1251 6.32647 1.82359
188 1 28.3696 6.79513 2.0898
2500 1 27.5612 6.85597 2.78665
2357 1 27.7765 5.84888 2.47712
187 1 29.2245 6.9144 1.66164
208 1 29.3967 5.94375 2.77057
251 1 1.24076 7.43993 2.3262
253 1 0.378139 7.91904 2.78569
259 1 0.570161 8.38162 1.85186
252 1 1.95289 7.86296 1.83792
264 1 2.36488 7.2151 2.64764
167 1 2.95115 7.90955 2.04849
576 1 3.92597 7.63919 2.51216
637 1 5.28549 8.37906 1.55244
489 1 5.69579 7.43778 1.64513
570 1 4.95615 7.66556 2.7745
579 1 6.51172 8.48369 1.48746
580 1 6.91231 7.76988 1.96818
490 1 5.85718 8.02979 2.40018
555 1 8.27314 7.77289 1.7933
820 1 7.62915 7.41368 2.63052
501 1 8.1862 8.20312 2.84542
556 1 8.83201 7.24844 2.44809
880 1 9.73747 7.42849 2.08314
879 1 10.4288 7.9394 2.46058
1124 1 11.2164 7.50741 1.84673
887 1 11.0765 8.50765 2.05441
1202 1 12.185 7.80566 1.67035
1270 1 11.6933 8.00918 2.73772
1151 1 12.7982 8.49689 2.8424
1201 1 13.1228 7.6529 1.85002
1132 1 14.0873 7.41846 1.6066
1126 1 13.9283 8.52296 1.96761
1231 1 14.9842 8.11867 2.28485
1522 1 16.7073 7.25532 1.45197
1360 1 15.9577 7.77347 2.10476
1453 1 16.923 7.91492 2.68
1526 1 17.3924 7.94568 1.49936
1551 1 18.0066 8.39738 2.63522
1532 1 19.8359 7.51811 2.07604
1552 1 18.6044 7.62826 2.33352
1531 1 20.1171 8.39118 2.36172
1854 1 20.9117 7.50701 2.05317
2173 1 21.9888 7.97659 2.10922
2174 1 22.8525 8.12144 2.37399
2170 1 24.1051 8.06693 1.95522
2101 1 25.0497 7.21269 2.81966
2501 1 25.1491 7.2044 1.79242
2502 1 25.0839 8.18134 1.93722
2258 1 26.8993 8.33211 1.88717
2257 1 26.0827 8.00574 2.26868
2510 1 27.7125 7.66906 2.10595
2434 1 27.1453 8.07831 2.84633
254 1 29.9074 7.53968 2.04297
2509 1 28.672 7.86672 2.15584
2356 1 29.0573 7.159 2.79276
22 1 0.889125 9.72847 2.77431
20 1 1.21892 9.37155 1.88158
23 1 2.19759 8.84178 2.02883
265 1 2.59591 9.67443 2.14285
17 1 3.47607 8.83561 2.1617
18 1 3.86009 9.55748 2.61581
572 1 4.61214 8.78957 2.31441
336 1 6.00056 9.36718 2.03357
335 1 6.89853 9.74227 1.8886
326 1 6.74398 8.59875 2.51583
325 1 7.58239 8.68803 2.04683
567 1 8.03049 9.59367 1.96264
884 1 8.98173 9.92013 1.60896
901 1 9.51867 8.70979 1.43334
896 1 9.02418 9.34042 2.54017
888 1 11.308 9.44369 1.73737
885 1 10.2244 9.36276 2.21421
1540 1 11.9799 9.42957 2.46984
1539 1 12.3335 8.86648 1.75207
975 1 12.9954 9.94829 1.86467
1125 1 13.5584 9.2823 2.38484
1318 1 15.0582 9.99504 2.70882
1538 1 14.6154 9.3782 1.89631
1537 1 14.4701 8.97607 2.76528
1359 1 15.7829 8.62181 1.67413
1865 1 17.0765 8.92393 2.29179
1569 1 15.9146 9.40228 2.35867
1866 1 17.8563 9.05658 1.732
1870 1 18.4344 9.85621 2.31479
1869 1 19.4123 9.70788 2.41756
1848 1 19.0217 8.82361 2.006
2179 1 21.1588 8.73298 1.86504
1625 1 20.2011 9.27395 1.91609
1919 1 20.6923 9.23347 2.83298
1920 1 21.2285 9.78858 2.29331
2180 1 21.5184 8.75338 2.73634
2167 1 22.7612 8.66472 1.46355
2168 1 22.2828 9.22441 2.09101
1862 1 22.0909 9.94726 2.83793
2188 1 23.6291 9.16804 1.72444
2178 1 24.0204 8.90311 2.74447
2187 1 24.5596 9.1959 1.57283
1925 1 25.0101 9.44621 2.55262
2263 1 26.5295 9.68558 1.47876
2264 1 25.827 9.25174 2.01905
2506 1 27.0387 9.0279 2.56608
2507 1 27.958 8.71414 2.06484
2508 1 27.465 9.45102 1.65312
289 1 28.2338 9.84596 2.22876
21 1 29.9227 9.85027 2.69796
287 1 29.2403 9.98164 1.86735
260 1 29.97 9.09747 1.91434
2251 1 29.0019 9.02067 2.35863
2252 1 28.9021 8.8266 1.46461
303 1 0.982075 0.267716 3.89476
121 1 1.39836 1.31747 3.90132
304 1 0.637936 0.827289 3.14827
31 1 2.17444 0.253705 3.03805
32 1 2.37037 1.1942 3.05785
342 1 2.53095 0.494387 4.1227
93 1 4.22049 1.19906 3.72889
341 1 3.18369 0.576819 3.42698
29 1 4.56607 0.471837 2.9748
354 1 5.45647 0.951741 3.55825
262 1 4.58357 0.00552742 3.98198
338 1 6.72042 1.34562 3.01311
370 1 6.44763 0.553412 3.50865
369 1 7.08764 1.016 4.06129
339 1 8.57065 1.3073 3.12931
899 1 8.24794 0.0582056 3.13305
616 1 7.88144 0.158308 4.10208
340 1 8.36708 1.28609 4.10378
710 1 9.29625 0.680875 3.7547
742 1 9.81094 0.0220234 2.9461
709 1 9.69575 1.14982 2.9777
656 1 10.4432 0.663857 3.50723
988 1 12.2119 0.459851 2.9655
907 1 11.4349 1.28002 2.93305
904 1 11.4872 0.431324 3.62771
994 1 12.4449 1.33266 3.55019
1205 1 12.5138 0.336653 4.15758
993 1 11.5778 1.34975 4.10603
1536 1 13.3716 0.966904 4.07251
1535 1 13.4347 0.880112 3.14662
968 1 14.4944 0.705743 2.98996
1249 1 15.3573 0.979217 3.5459
1317 1 15.9798 0.261372 2.90557
1000 1 15.8911 0.117684 3.999
1007 1 16.6247 0.967756 3.75746
1313 1 17.6279 0.588973 3.06574
1314 1 18.5465 0.763226 2.87396
1391 1 17.9145 1.09222 4.03455
1562 1 17.4784 0.0406788 4.13092
1310 1 19.902 1.1414 3.45453
1309 1 19.307 0.371735 3.4915
1640 1 19.0915 1.10964 4.21261
1633 1 20.5636 0.238201 3.78036
1718 1 20.8691 1.23693 3.84488
1881 1 21.227 0.68935 3.04392
1877 1 22.6087 0.887485 3.24878
1878 1 21.9145 0.878976 3.94986
2183 1 23.7154 0.508491 3.3245
1956 1 23.859 0.870709 4.27252
2176 1 24.4966 1.25196 3.14684
1960 1 25.4296 0.348306 3.67243
1959 1 24.7329 0.082302 4.20202
2334 1 26.0956 1.07347 3.6724
2273 1 26.6513 0.178336 3.99215
2498 1 27.5677 0.54066 3.32264
2497 1 28.5421 0.78535 3.36822
2267 1 29.667 0.644382 3.41086
2344 1 0.812608 1.97285 3.09244
2343 1 0.802963 2.44141 3.92188
41 1 0.0770663 1.4644 3.91592
445 1 2.46745 1.56167 4.14906
38 1 1.81348 2.33776 3.2481
446 1 2.56844 2.51535 4.25996
102 1 2.85853 2.26163 3.28512
101 1 3.46069 1.61242 3.0875
435 1 3.80589 2.14504 4.05156
414 1 3.91445 2.74345 3.0102
94 1 4.58724 1.51713 2.86877
353 1 5.68254 1.83871 3.2925
409 1 4.79207 2.27673 3.63804
350 1 5.66798 2.57176 4.24806
427 1 6.69732 2.11394 3.99063
344 1 7.64589 1.75163 3.44892
666 1 8.59032 2.28255 3.83686
644 1 9.42084 2.82438 3.91779
351 1 9.70089 1.65748 3.9103
743 1 10.3348 2.80707 3.21036
352 1 10.5859 1.84289 3.56893
978 1 11.5701 2.37816 3.502
1002 1 14.054 2.02039 4.08181
1001 1 13.2497 2.04449 3.56273
985 1 15.0137 2.09739 3.43995
1250 1 14.8678 1.46682 4.27677
986 1 15.9773 2.01975 3.35648
1407 1 17.0613 2.64102 3.93708
1008 1 16.0184 1.58304 4.19183
997 1 15.8681 2.79985 4.27377
979 1 17.3022 1.5653 3.17985
1408 1 17.1717 1.79258 4.25905
980 1 18.0747 2.11452 2.93001
1389 1 18.1682 2.35453 4.01468
1305 1 19.0202 1.97337 3.40695
1631 1 20.0646 2.26931 3.33513
1709 1 21.1243 2.71904 3.77061
1671 1 22.8008 2.22849 3.78829
1705 1 21.745 1.90777 3.5731
1672 1 23.3167 1.70623 3.13759
1620 1 23.7867 2.29969 3.9778
2175 1 24.3046 2.21515 3.03967
1619 1 24.7194 1.98599 3.92094
2340 1 25.5282 2.38062 3.44628
2361 1 26.8551 1.71977 3.65588
2287 1 27.8951 1.68817 3.26581
2052 1 27.2625 2.5408 3.14952
2278 1 28.8877 1.74041 4.00143
2268 1 29.8633 1.56689 2.95058
2277 1 28.8877 1.95101 3.0522
2519 1 29.7481 2.55216 2.90742
2520 1 29.6645 2.50416 3.89699
195 1 0.609521 3.08354 2.99592
2359 1 0.144249 3.6598 4.11311
196 1 0.936549 3.91698 3.42933
25 1 1.58085 3.13187 4.22325
26 1 2.04726 3.71506 3.59038
480 1 3.0263 4.23907 2.94106
497 1 4.03378 3.70744 3.29499
436 1 3.90134 3.11247 4.21511
434 1 3.3724 4.09416 4.06708
433 1 3.00177 3.32219 3.70408
410 1 4.90733 3.18389 3.85235
408 1 5.2887 4.21729 3.67209
407 1 4.48605 4.16241 4.23561
483 1 5.89859 3.10573 3.41717
425 1 6.8301 3.51588 2.92365
347 1 6.57342 4.16656 4.21337
426 1 6.82009 3.15488 3.81891
424 1 7.53087 4.15751 3.22809
745 1 7.9283 3.08949 3.4601
755 1 8.38953 4.15198 3.8173
756 1 7.72132 3.71127 4.26807
643 1 8.91007 3.31918 3.20176
747 1 9.93826 3.80888 3.70418
736 1 11.3891 3.49682 3.63202
1068 1 12.5829 2.91578 3.61036
1074 1 12.1337 3.83667 2.94627
1122 1 13.8863 4.16188 3.60326
1121 1 13.1718 3.76393 3.14961
984 1 13.7674 2.9789 3.74171
1076 1 13.0994 3.78951 4.2052
1077 1 15.2833 3.37636 3.02839
1078 1 14.7141 3.08836 3.75623
1382 1 15.4748 3.85128 4.00584
1376 1 16.2539 3.0622 3.38669
1085 1 16.4451 4.11602 3.72158
1086 1 17.1906 3.61733 3.38748
1419 1 18.2702 4.15423 4.25318
1400 1 18.6253 2.9678 2.94828
1390 1 18.8753 3.10214 4.05272
1385 1 19.5026 4.10481 3.7385
1312 1 20.0735 3.21411 3.85282
1710 1 21.2914 3.32445 3.05595
1798 1 21.0881 4.11737 3.78375
1394 1 20.3649 4.03557 3.05435
1873 1 22.1202 2.89108 3.40875
1797 1 22.0374 3.88569 3.77451
1943 1 23.7608 3.13913 3.32392
1944 1 23.0422 3.78684 3.39956
1628 1 24.251 3.72456 3.98736
1931 1 25.0303 3.1092 2.93025
2100 1 24.7165 4.1756 3.02079
2039 1 25.3647 3.86091 4.12023
2354 1 26.1078 3.20516 3.47184
2124 1 26.562 3.81513 4.23154
2364 1 27.5523 3.41281 3.77695
2363 1 28.2691 3.11874 3.19162
2431 1 29.5577 3.83713 3.02453
199 1 28.703 3.34422 4.0109
185 1 0.288111 5.2921 2.88239
2370 1 0.140908 4.63417 3.81497
103 1 1.4138 4.7646 3.09331
104 1 1.48983 5.70386 3.29721
180 1 2.84313 5.18498 3.39642
111 1 2.31242 4.49933 4.16827
112 1 1.79154 5.28571 4.21917
179 1 3.5824 4.98421 4.00556
421 1 5.37371 5.04855 2.98398
420 1 4.59853 5.63948 3.32448
331 1 6.36658 4.75173 3.23413
442 1 5.9071 5.02074 4.23203
825 1 7.71301 5.35906 2.87517
423 1 7.53266 4.8734 3.90383
826 1 8.27892 5.53156 3.69033
1157 1 9.99894 5.1567 3.30995
1158 1 9.22797 4.65547 3.62565
735 1 10.9396 4.36615 3.43922
758 1 10.699 5.49567 3.99134
1055 1 12.1508 4.37606 3.84826
912 1 12.3642 5.48319 4.10411
911 1 11.6893 5.23774 3.55976
1056 1 12.8755 4.70544 3.28542
1060 1 14.2431 5.12548 3.6747
1458 1 14.9353 4.42546 2.94205
1225 1 15.1709 5.59121 3.23353
1071 1 15.1868 5.04925 4.2463
1480 1 17.4885 4.6427 3.18154
1727 1 18.7319 4.54607 3.10607
1473 1 19.907 5.06581 3.25192
1716 1 19.0122 4.95044 4.14904
1782 1 21.18 4.90029 2.90096
1789 1 20.7941 5.28798 4.04551
2028 1 22.7491 4.99715 3.12059
1713 1 21.9781 4.94139 3.80605
2030 1 22.7842 5.69804 3.90925
2027 1 23.61 4.62825 3.33884
2040 1 25.5804 4.56023 3.46203
2348 1 24.3887 5.51076 3.1515
2036 1 26.5455 4.36822 3.24033
2112 1 26.3068 5.43365 3.85023
2335 1 27.5535 4.45463 2.8793
2035 1 27.1606 4.8834 3.73102
2037 1 28.2638 5.26752 4.08492
108 1 28.3911 5.27287 3.02295
107 1 28.6366 4.4213 3.41537
194 1 29.304 5.34898 4.08126
204 1 0.0624804 6.00611 3.59908
190 1 0.334132 7.13513 3.65842
189 1 0.845217 6.56289 3.11388
202 1 1.10969 6.48689 4.27423
184 1 2.25837 6.65379 3.62564
419 1 3.69238 5.85922 3.53588
281 1 3.19953 6.67289 3.02726
500 1 4.51261 7.11388 3.61343
512 1 5.06081 6.26838 4.00734
594 1 6.9068 5.76409 3.5093
593 1 5.92816 5.89505 3.43015
587 1 6.51482 6.80062 4.22679
819 1 7.27189 6.76137 3.28007
811 1 8.38146 6.45574 2.98173
504 1 7.7489 6.38444 4.09539
1135 1 9.62291 6.05806 3.0083
812 1 8.80129 6.33871 3.78145
897 1 9.84817 6.17946 3.96639
824 1 10.9704 5.71695 2.88571
898 1 10.6497 6.4776 3.53
1277 1 11.4904 6.94588 2.98492
1170 1 12.0342 6.46352 3.72159
1137 1 13.2528 5.7452 3.57224
1148 1 14.1165 6.28722 3.40396
1233 1 13.2917 6.97706 4.023
1160 1 14.924 6.76089 4.12393
1142 1 15.554 6.93984 2.88355
1226 1 16.0573 5.91362 3.22085
1481 1 16.8818 6.69861 3.19389
1558 1 16.1881 6.73347 3.96534
1464 1 17.5449 5.7356 3.52813
1489 1 17.7197 6.62774 4.09541
1715 1 18.5408 5.90942 4.16035
1474 1 19.4325 5.8428 3.54125
1795 1 18.7916 6.91586 3.82834
1774 1 21.3226 6.73925 3.28836
1781 1 20.6331 5.72948 2.99744
2121 1 20.4998 6.44904 3.93098
1773 1 21.5017 5.7964 3.55337
2029 1 22.3648 6.51589 3.48362
2031 1 23.3256 6.01207 2.9942
1791 1 23.41 6.85892 3.69101
2118 1 23.9698 5.78766 4.0708
2347 1 25.3292 5.79792 3.41954
2102 1 24.4369 6.65121 3.32622
2358 1 26.8602 5.82038 2.89735
2337 1 26.5082 6.65769 3.2405
2414 1 27.111 6.01156 4.18463
2428 1 26.7682 7.02453 4.22275
2499 1 28.2678 6.99789 3.50115
2413 1 27.803 6.13855 3.66353
207 1 28.8228 6.06044 3.57771
2438 1 29.2772 6.96771 3.82718
294 1 1.39355 7.52891 3.65561
58 1 1.3932 8.40969 2.8663
279 1 2.40745 7.44312 4.20528
280 1 2.53537 8.23031 3.71662
53 1 1.5805 8.30697 4.26103
575 1 3.79679 8.43476 3.11048
282 1 3.13076 7.57714 3.13641
569 1 5.49541 7.95595 3.57501
506 1 6.70574 7.69778 3.07577
588 1 6.48271 7.78821 4.16901
565 1 7.57689 7.84718 3.63738
566 1 8.45446 7.42784 3.49321
502 1 9.18483 8.38536 2.8948
803 1 9.53219 7.65957 3.67744
919 1 8.61461 8.26787 4.15978
1214 1 10.8289 7.70808 3.33514
804 1 10.2536 7.23371 4.13432
686 1 10.5498 8.48887 4.06665
1269 1 12.4965 7.4399 2.99808
1139 1 11.6873 7.42061 3.87319
1140 1 12.2813 8.16676 3.69407
1216 1 13.9128 7.76926 2.90029
1468 1 13.6646 7.89591 4.10276
1553 1 14.9823 7.73033 3.47363
1554 1 15.9177 7.75532 3.37384
1557 1 16.7276 7.50199 4.11819
1454 1 16.836 8.5007 3.4627
1490 1 17.9053 7.15341 3.36231
1807 1 18.2791 8.5695 3.68413
1808 1 17.9261 7.89088 4.19607
1547 1 19.1688 7.99257 3.17475
1548 1 19.8128 7.27544 3.15425
1893 1 19.6414 7.64067 4.23315
1868 1 19.9002 8.43646 3.64301
1853 1 20.8852 7.78328 2.92513
2122 1 20.7272 7.4255 4.14843
1859 1 21.0867 8.52896 3.69908
2107 1 21.6896 7.61486 3.76099
1792 1 22.8412 7.55184 3.35167
2169 1 24.1988 7.80961 2.91056
2275 1 24.0699 8.05828 3.95343
2276 1 24.9176 7.62301 3.90435
2199 1 25.2295 8.3185 3.16661
2338 1 26.3942 7.61227 3.36746
2191 1 25.8065 8.20134 4.08462
2518 1 27.0408 8.44293 4.12673
210 1 28.4759 7.90389 3.99003
2433 1 28.0568 8.34158 3.0622
2427 1 27.4593 7.54368 3.83681
2355 1 29.447 7.99594 3.1525
212 1 29.2919 8.4666 4.25
274 1 0.12645 9.70277 3.86857
54 1 1.32644 9.20997 3.93297
273 1 0.350946 8.75162 4.06703
57 1 1.83149 9.33829 2.92122
276 1 2.3847 9.29066 3.98944
24 1 2.73028 8.78809 2.87422
275 1 3.17779 9.56406 3.63972
277 1 3.98769 9.03355 4.22237
30 1 5.31297 9.9248 2.98255
571 1 5.44565 8.79372 2.86754
278 1 4.67076 8.94018 3.52392
596 1 6.0269 9.52249 3.84054
577 1 7.10744 9.83941 2.96348
505 1 6.4294 8.57201 3.46378
590 1 7.43764 8.92548 3.33071
589 1 8.09947 9.16821 3.90403
905 1 9.57055 8.7435 4.01021
584 1 9.84425 9.87676 4.21063
895 1 9.0408 9.5286 3.52632
1213 1 11.0631 8.6608 3.24007
906 1 10.1297 9.07079 3.33447
886 1 10.8881 9.61903 2.89844
1229 1 10.7663 9.47025 4.00875
903 1 11.9071 9.61562 3.51001
1235 1 12.8498 8.90835 4.24029
1219 1 12.9735 9.55566 3.41139
1152 1 13.5687 8.57843 3.46474
1220 1 13.9229 9.78453 3.35755
1228 1 15.4134 8.67176 3.55301
1227 1 14.9718 9.5488 3.6467
1570 1 16.2105 9.38396 3.28467
1574 1 18.4071 9.90793 3.44897
1573 1 17.6477 9.45162 3.10575
1497 1 17.478 8.91028 4.2759
1549 1 18.9156 9.04739 2.98077
1550 1 19.093 9.14939 3.93305
1867 1 19.9181 9.38875 3.41441
1871 1 21.3158 9.54128 3.67488
1860 1 22.0143 8.66537 3.71006
1861 1 22.5296 9.71148 3.69139
2177 1 23.0972 8.94458 3.07407
2190 1 23.2453 8.72409 4.19294
1926 1 24.4134 9.65738 3.28263
2192 1 25.4873 9.11178 4.20831
2200 1 26.1297 8.66478 3.11332
2505 1 26.8837 9.40248 3.47002
290 1 27.9622 9.51867 3.06094
2280 1 27.7286 9.45367 4.05027
291 1 29.65 8.93096 3.25558
2457 1 28.5851 8.97215 3.83815
292 1 29.0667 9.74774 3.31396
42 1 0.446027 0.768076 4.48684
39 1 1.88533 1.06243 4.94221
49 1 2.64444 0.0799191 5.61615
360 1 3.62437 0.368711 4.37296
448 1 3.8305 1.37593 4.6758
447 1 3.07297 0.974514 5.08474
358 1 4.99407 0.778829 4.73097
595 1 5.81119 0.329835 4.32325
781 1 5.96242 1.18128 4.87291
782 1 6.67159 0.552996 4.90885
615 1 7.88105 0.387876 5.04952
683 1 7.44816 1.30438 5.14043
682 1 8.74341 0.840964 4.98672
654 1 9.79719 0.833779 4.65995
653 1 9.61113 0.0741827 5.33119
1230 1 10.7309 0.208905 4.65343
910 1 10.2796 0.807831 5.51596
909 1 11.1818 0.57693 5.6909
1206 1 11.7619 0.399763 4.69163
1208 1 12.6259 0.356991 5.69267
1240 1 12.7016 1.13173 4.96514
1207 1 13.3419 0.126312 5.02183
1248 1 14.1889 0.282788 5.71364
677 1 14.0544 1.17972 5.11011
1246 1 14.3215 0.118438 4.38055
999 1 15.3711 0.632836 4.50713
1401 1 15.7659 0.688123 5.66132
1328 1 16.4747 1.37478 5.06426
1402 1 16.5694 0.23636 5.40228
1327 1 17.2954 0.857515 4.79389
1639 1 18.5235 0.417452 4.63404
1896 1 18.7298 0.704472 5.60843
1659 1 20.2258 1.11471 4.66493
1634 1 21.1335 0.434577 4.59672
1658 1 20.6935 0.0907667 5.66516
1856 1 22.7624 0.250496 5.44885
1855 1 22.8513 0.257632 4.47506
1635 1 22.3888 1.16433 4.92889
2193 1 23.4403 1.08705 5.39682
2194 1 24.1512 0.424183 5.22911
2256 1 25.223 1.07132 4.40714
1983 1 25.1934 0.492391 5.42735
2513 1 26.5768 0.97389 4.65954
2274 1 25.9914 0.136818 4.68686
2514 1 26.5015 0.847962 5.57961
2279 1 27.8836 0.376134 4.34415
2295 1 28.1835 1.23402 4.79182
1976 1 27.395 0.501704 5.34314
2293 1 29.7567 0.327845 5.16571
2528 1 29.1066 0.79347 4.36663
2304 1 28.9358 0.524462 5.65434
2385 1 29.5653 1.42014 5.14737
2352 1 0.839531 1.46209 5.06593
2447 1 1.22561 2.40028 5.58594
2351 1 0.194714 2.0474 4.77951
122 1 1.56707 1.98436 4.56889
45 1 2.51713 1.9226 5.23473
46 1 2.0968 2.81229 5.25557
128 1 3.28275 2.6901 5.09361
61 1 3.67978 1.69135 5.60124
357 1 4.80782 1.67345 4.46907
437 1 5.08695 1.75955 5.39252
428 1 6.70096 1.86009 4.89064
349 1 5.8679 2.67048 5.1644
343 1 7.7549 2.02888 4.42182
665 1 8.54085 2.83811 4.67681
361 1 7.73341 2.59729 5.29382
362 1 8.37501 1.86122 5.21167
754 1 9.41492 1.76754 5.32625
753 1 9.48189 2.71212 5.24135
982 1 10.3963 1.95829 4.59914
981 1 10.4631 2.82954 4.29213
995 1 11.1827 1.56646 5.00338
996 1 10.4432 1.83485 5.60127
672 1 10.6391 2.78726 5.33107
737 1 11.4854 2.61046 4.71224
738 1 12.2426 2.16661 4.36152
1237 1 12.3477 2.04925 5.36068
1239 1 13.1909 1.89577 4.62957
998 1 15.118 2.39874 4.56297
1090 1 15.6497 2.00127 5.33583
1162 1 14.3649 2.2956 5.40605
1403 1 16.4783 2.43951 4.96
1392 1 18.2853 1.52066 4.84173
1319 1 17.313 1.86017 5.34502
1741 1 18.1848 2.58041 5.09904
1641 1 19.1509 2.25934 4.7016
1642 1 19.478 1.80951 5.51691
1660 1 20.4387 2.03874 4.33242
1717 1 21.2947 1.47549 4.71601
1719 1 20.5948 1.77857 5.48212
1733 1 21.0274 2.73933 4.95807
1734 1 21.8892 2.32564 4.55553
1654 1 22.4692 2.73796 5.5455
1648 1 21.5674 1.79887 5.65838
1623 1 23.1492 2.05717 4.8591
1948 1 25.4644 2.44156 4.59995
1955 1 24.4064 1.49091 4.84914
1947 1 25.4849 2.46942 5.54779
1945 1 24.4209 2.41565 5.21893
2255 1 25.6442 1.55552 5.16164
2362 1 26.1397 1.81378 4.29972
1973 1 26.5643 2.33165 5.64377
2123 1 26.7134 2.8353 4.31811
2282 1 27.7314 2.3282 4.35418
2296 1 27.3775 1.63894 5.16014
2386 1 28.8937 2.05408 5.09588
2442 1 29.9517 2.75622 5.4885
2448 1 0.766402 2.86167 4.85754
2360 1 0.307977 3.79181 5.11289
127 1 2.80194 3.51645 4.88339
126 1 1.77446 3.86997 4.94006
130 1 3.79524 3.66599 5.30015
129 1 4.38604 2.93306 5.3193
431 1 5.46878 3.54746 5.55798
760 1 6.83148 3.17459 5.00068
432 1 5.75138 3.65819 4.59583
667 1 8.19475 3.3691 5.65938
829 1 7.51049 4.15082 5.317
761 1 8.85692 3.86924 4.85132
748 1 9.87502 3.61613 4.60336
671 1 11.0545 3.55358 4.84178
778 1 10.3005 3.88992 5.5565
1075 1 12.2346 3.3784 4.53203
1167 1 12.7396 4.13147 5.16268
1014 1 12.0496 3.02542 5.43287
983 1 14.1209 2.97253 4.71675
1081 1 13.1234 3.00606 4.87948
1079 1 13.7319 4.24097 5.09343
1080 1 14.4152 4.11915 4.46443
1134 1 15.1681 3.46311 4.87976
1381 1 16.2928 3.68579 4.59593
1404 1 16.0559 3.08045 5.62146
1420 1 17.3065 4.07959 4.37333
1742 1 18.229 3.53304 5.29088
1411 1 17.374 3.19343 4.85598
1311 1 19.8655 3.20423 4.7955
1731 1 19.0306 4.12543 4.90365
1752 1 19.2041 2.89236 5.66148
1732 1 19.9674 4.20918 5.28738
1650 1 21.0069 3.78962 5.00083
1649 1 20.5864 3.34036 5.70629
1729 1 22.3006 3.32148 4.53494
1730 1 22.032 3.69174 5.34253
1624 1 23.4769 2.87245 5.18783
1627 1 23.4543 3.25665 4.32362
2046 1 24.1472 4.05015 5.48492
2041 1 22.9685 4.12845 5.3455
1946 1 24.7028 3.29059 4.93234
2049 1 26.6371 3.41153 5.58054
1966 1 25.7779 4.09736 5.50171
1965 1 25.845 3.31678 4.91745
2050 1 27.055 4.18258 5.25459
2281 1 27.4061 2.93739 5.0752
2365 1 27.644 4.25746 4.39583
2366 1 28.1774 3.63973 4.87725
2285 1 28.5347 2.97682 5.57048
200 1 29.1359 4.15751 4.33506
2441 1 29.3633 2.94294 4.75473
203 1 0.493645 5.64763 4.30011
2369 1 0.961047 4.55586 4.32134
124 1 0.667687 4.77825 5.20539
123 1 1.1864 5.63455 5.04801
592 1 2.39672 5.33483 5.04398
191 1 2.95332 4.5462 5.14911
116 1 3.92585 4.72827 5.16988
591 1 3.24112 5.70201 5.07441
441 1 4.9399 5.18896 4.36981
115 1 4.87242 4.53838 5.28115
522 1 4.95269 5.63828 5.48706
348 1 6.79412 4.81745 4.88458
827 1 7.6815 5.22898 5.67333
830 1 8.17364 4.60111 4.83011
503 1 7.50714 5.62976 4.66234
751 1 8.94849 5.04629 4.45579
752 1 9.85481 4.716 4.39575
749 1 8.77268 5.30538 5.68289
750 1 9.41703 4.60404 5.36002
846 1 10.247 5.56779 4.91222
757 1 11.0244 4.63117 4.39646
1094 1 11.2314 4.79599 5.56435
1168 1 12.1003 4.76788 4.77504
1059 1 14.2054 5.61177 4.5004
1189 1 13.1815 5.11974 4.81597
1097 1 14.9447 4.83549 5.37574
1098 1 15.7266 4.49034 5.01369
1475 1 16.7754 5.00197 4.87871
1496 1 15.9393 5.55686 5.25304
1463 1 17.6221 5.1418 4.3448
1397 1 17.5712 4.5183 5.34497
1398 1 18.3378 5.02641 5.07249
1725 1 19.3893 4.97078 5.58359
1799 1 19.8409 5.57813 4.67275
1701 1 20.2857 4.5831 4.40729
1702 1 20.6697 4.97094 5.1798
1723 1 21.4191 5.67541 5.60997
1714 1 21.5372 4.59004 4.65555
2042 1 22.5472 4.3979 4.48951
1739 1 22.5138 5.69588 5.59342
1962 1 23.5995 4.49633 4.39405
1961 1 23.1571 5.21881 4.70802
2025 1 24.8298 4.89174 5.35991
2026 1 24.7108 5.05663 4.44222
2128 1 25.6087 5.53536 5.15172
2367 1 26.0737 4.73264 4.68183
2368 1 26.9577 5.10859 4.73886
2465 1 28.1475 4.70293 5.26267
2436 1 27.7399 5.61496 5.70189
117 1 29.6946 4.78461 5.13563
193 1 28.7829 5.34696 4.88725
138 1 0.422444 6.60393 5.04596
137 1 1.1459 6.37902 5.6276
284 1 2.08125 6.26542 4.85985
283 1 2.80644 6.73918 5.26084
201 1 1.57372 7.06724 4.8684
499 1 3.97318 6.87736 4.43891
183 1 2.93664 6.52416 4.30001
219 1 4.07 6.30334 5.40448
511 1 5.53113 7.03978 4.34089
509 1 4.94324 6.72702 5.30995
514 1 6.17968 5.75784 4.88625
513 1 6.93155 6.30865 5.33561
1064 1 8.329 6.09294 5.05555
1063 1 7.85081 6.8301 5.40366
917 1 8.34573 7.1298 4.52751
845 1 9.32761 5.94717 4.89308
831 1 9.86676 6.8763 5.12421
835 1 10.8105 6.42691 4.71807
1156 1 11.2638 6.53187 5.63051
836 1 11.4642 5.7258 4.71324
1169 1 12.0575 6.61676 4.70029
1153 1 12.6297 5.81031 5.43156
1190 1 13.1667 6.07073 4.70888
1252 1 13.1615 7.04866 5.14059
1255 1 13.9928 6.70583 5.6359
1072 1 15.6163 5.91553 4.36552
1177 1 14.8007 6.30886 5.06225
1476 1 16.7855 5.84287 4.36493
1499 1 16.0861 6.54839 5.18174
1495 1 16.8713 5.75947 5.55124
1485 1 17.2059 6.66245 4.98893
1421 1 18.4705 6.85315 5.01899
1486 1 17.7257 5.86442 5.05139
1478 1 18.8924 5.83912 5.29111
1796 1 19.4023 6.55049 4.49661
1790 1 20.7812 5.93063 4.83204
1800 1 20.094 5.77138 5.54157
1801 1 20.1662 6.96434 5.08549
1787 1 21.5587 6.67014 4.30934
1883 1 21.6599 6.64701 5.56828
1788 1 21.7971 5.81706 4.63034
2114 1 22.4905 6.52038 4.93755
2117 1 23.592 6.27098 4.83439
2127 1 24.8347 6.10119 5.03565
2129 1 24.9496 6.72506 4.33439
2111 1 25.9701 6.21651 4.40485
2140 1 26.8647 6.7075 5.32631
2133 1 25.7844 6.86651 5.39434
2445 1 27.9588 6.81459 4.58278
2038 1 27.9457 5.83595 4.75116
2446 1 28.3863 6.38102 5.40469
118 1 29.8607 5.7184 5.04724
113 1 29.6513 6.9614 5.59858
2437 1 29.2032 6.49331 4.63342
293 1 0.768328 7.66199 4.4278
214 1 0.327803 8.27515 5.09141
2308 1 2.15522 7.84933 5.28025
515 1 3.81223 7.90117 4.48024
35 1 3.13222 7.76666 5.31028
269 1 4.17451 7.81621 5.46886
36 1 3.13421 8.55052 4.73251
516 1 4.70572 8.20427 4.33902
510 1 5.22669 7.64082 5.15333
582 1 6.42407 7.47046 5.1525
916 1 7.01313 8.36446 5.65357
603 1 7.21776 8.49573 4.44982
918 1 7.35734 7.35503 4.56969
920 1 8.16324 8.02895 4.99496
1173 1 9.58579 7.96676 4.89245
833 1 8.97785 7.34853 5.38135
921 1 10.848 7.38192 5.08276
1174 1 10.1104 8.22371 5.61077
685 1 11.0354 8.32744 4.8753
1234 1 12.6144 7.54985 4.34831
1242 1 12.1656 8.30063 5.13494
1159 1 14.2614 7.17167 4.65449
1467 1 13.2174 8.12909 4.93201
1541 1 14.1548 8.53092 5.10473
1542 1 14.7045 8.41407 4.30937
1145 1 15.6674 7.50523 4.51544
1576 1 14.3686 7.65625 5.59443
1146 1 15.2131 7.20297 5.31446
1564 1 15.571 8.46698 5.11966
1563 1 16.1153 8.51853 4.29717
1559 1 17.0822 7.66664 5.28775
1560 1 16.174 7.66613 5.65961
1498 1 17.6234 8.53086 5.1503
1805 1 18.3528 7.93186 5.57377
1894 1 19.2868 7.49064 5.06012
1903 1 18.9425 8.57076 4.92937
1492 1 20.1232 8.16146 5.70994
1491 1 20.3593 8.25368 4.75349
1863 1 21.1891 7.52279 5.24964
1864 1 21.4978 8.30662 4.70996
2108 1 22.3275 7.56104 4.46383
2197 1 23.9456 8.0802 4.98061
2198 1 23.2863 7.37221 4.83702
1885 1 22.8953 8.15199 5.39793
2130 1 25.6924 7.26002 4.52171
2202 1 24.6803 7.3987 5.36368
2451 1 25.8455 8.49783 5.24127
2443 1 26.7217 7.75131 5.05106
2444 1 27.6241 7.9431 4.85163
2203 1 27.9166 7.3901 5.68958
209 1 28.7032 7.48171 4.78512
2439 1 29.3358 8.48629 5.39184
211 1 29.785 7.6192 4.47404
2292 1 0.541062 9.76762 4.78761
44 1 1.06631 8.89314 5.04774
43 1 0.523471 9.31041 5.70414
34 1 1.64261 9.90195 4.7502
33 1 2.10038 9.18157 5.23122
359 1 3.13598 9.65166 4.78577
59 1 3.98435 8.96522 5.70037
261 1 4.37574 9.95663 4.88883
600 1 4.74811 8.85569 5.07196
599 1 5.29127 9.37714 4.48194
604 1 6.96039 9.39715 4.29043
598 1 6.04482 8.67386 4.4786
368 1 6.19485 9.62853 5.11696
367 1 7.08494 9.31089 5.381
597 1 5.82639 8.70884 5.37541
585 1 8.00888 8.96991 5.41522
583 1 8.92647 9.85166 4.60455
914 1 9.17484 8.90633 4.95237
924 1 8.71598 9.67846 5.63998
913 1 10.119 9.2281 4.89583
1223 1 11.7704 9.37119 5.38032
1224 1 11.9069 9.11576 4.38855
1236 1 12.8303 9.29431 5.16702
1245 1 13.8153 9.26188 4.34376
1247 1 14.4621 9.44208 5.34308
1315 1 15.1569 9.3212 4.65746
1316 1 15.5553 9.71058 5.49391
1579 1 16.6923 9.15144 5.39671
1580 1 16.5814 9.59261 4.5782
1904 1 18.4047 9.33965 4.67194
1561 1 17.5607 9.77244 5.13303
1887 1 19.8612 9.66861 4.45631
1888 1 19.9652 9.06576 5.247
1895 1 19.2965 9.91675 5.47806
1872 1 20.835 9.25717 4.50918
1890 1 21.0573 8.65813 5.55146
1637 1 22.3452 9.16636 4.59371
1643 1 21.7641 9.61764 5.31129
1638 1 22.7835 9.19407 5.44056
2189 1 24.1574 8.95248 4.32428
1949 1 23.5404 9.6985 4.93126
1950 1 23.8128 8.97234 5.50192
2512 1 24.7191 9.49733 5.65068
2452 1 24.8737 8.60662 5.23013
2511 1 25.5334 9.40954 5.20049
2517 1 26.4911 9.0428 4.53228
2119 1 26.6299 8.98692 5.67789
1975 1 27.2175 9.61053 4.97044
2458 1 28.4126 8.88525 4.76989
2120 1 27.5873 8.63902 5.69536
2527 1 28.84 9.89127 4.42632
2291 1 29.6876 9.30002 4.77636
300 1 0.652843 0.475136 5.87758
2377 1 0.284527 1.08929 7.03572
40 1 1.60505 1.32254 5.79662
70 1 2.30317 0.58314 6.39996
364 1 4.0279 0.00542677 5.95119
67 1 4.12623 0.745755 6.69678
374 1 5.55733 1.17075 6.57978
363 1 4.72902 0.603994 5.7444
373 1 5.93469 0.625532 5.84437
618 1 6.9746 0.257386 5.81392
323 1 7.10137 1.30825 6.93742
622 1 8.0348 0.770981 6.47829
681 1 8.84737 0.939741 5.98801
698 1 9.72352 0.128486 6.74556
674 1 10.7067 0.677276 6.55402
1238 1 12 1.21461 5.77098
1572 1 12.6922 0.666554 6.63004
1571 1 13.6982 0.819277 6.61839
1322 1 14.5459 0.278443 6.69078
1332 1 14.7998 1.18935 5.8676
1331 1 15.3217 1.07712 6.71226
1323 1 16.6296 0.12375 6.45444
1333 1 16.2558 1.398 6.54801
1661 1 17.3999 0.748735 5.86848
1662 1 17.1896 0.86693 6.8116
1897 1 18.1821 0.707029 6.67369
1657 1 19.9389 0.648592 5.79372
1898 1 19.0906 0.204225 6.53873
1655 1 19.8287 1.30665 6.63513
1720 1 20.816 1.17785 6.20264
1737 1 21.2896 0.0783274 6.71139
1738 1 20.3438 0.282188 6.63559
1647 1 21.684 0.87974 5.81214
2210 1 22.2494 0.6865 6.80331
1980 1 21.476 1.1822 7.09822
1954 1 23.2256 0.719585 6.39886
2224 1 24.1748 1.01187 6.93405
1922 1 24.4164 0.288125 6.20542
2223 1 25.0584 0.570875 7.09199
1978 1 25.9506 0.907823 6.72721
2531 1 26.0806 0.0165281 7.12281
2242 1 28.1354 1.00344 6.87088
2241 1 27.3697 0.713412 6.41632
299 1 29.8656 1.0033 6.02806
2283 1 29.7607 0.0204247 6.66606
301 1 0.365431 2.04088 6.0378
302 1 1.02841 1.69861 6.65492
143 1 1.0426 2.65516 6.70077
48 1 2.05588 2.42032 6.22113
69 1 2.07185 1.45538 6.91976
62 1 2.96503 1.86084 6.25593
197 1 3.80648 2.78099 6.18876
365 1 4.53133 1.82297 6.50087
438 1 5.69628 2.06263 6.10331
198 1 4.81723 2.69195 6.2488
324 1 6.6898 1.46535 6.12434
759 1 6.85808 2.56159 5.77008
792 1 6.85921 2.40428 6.84946
689 1 8.3199 1.86882 6.81429
684 1 7.68564 1.56529 6.03673
668 1 7.83527 2.79056 6.35464
690 1 8.72528 2.27992 6.07598
641 1 9.74051 1.57442 6.47467
673 1 11.0831 1.47265 6.42971
642 1 10.3072 2.37565 6.51096
1070 1 12.7906 1.89042 6.59286
1013 1 11.6062 2.47067 6.0826
678 1 13.3838 1.57454 5.74952
1069 1 13.5567 2.52273 6.70681
1021 1 14.1819 1.74713 6.68593
1089 1 15.4991 2.25105 6.3044
1334 1 16.555 2.11504 5.98453
1320 1 17.9877 2.12774 5.94326
1366 1 17.2025 1.89929 6.74818
1326 1 18.8713 2.21374 6.52459
1410 1 19.8926 2.5104 6.33509
1409 1 20.7513 2.27231 6.69922
1636 1 22.4904 1.59137 5.80702
1986 1 21.8116 2.5834 6.62281
1653 1 23.0417 2.38025 6.24902
1957 1 23.7493 2.79606 7.00435
1951 1 24.09 1.72284 6.03716
1646 1 23.0393 1.6593 6.91582
1952 1 25.0463 1.46441 6.07146
1972 1 24.8704 2.27339 6.76667
1974 1 25.9946 1.79382 6.1183
2373 1 27.0919 1.79608 6.46452
1967 1 26.0039 2.82113 6.44891
2286 1 27.8546 2.27838 5.73798
2374 1 27.1882 2.72283 6.42596
2310 1 28.2939 2.1962 7.00325
2303 1 28.8446 1.4412 5.89134
2383 1 29.3376 2.74691 6.23629
141 1 0.986761 3.35831 5.87836
142 1 0.159149 3.50471 6.2549
150 1 1.22009 3.77686 6.91158
125 1 2.32072 4.0272 5.74472
47 1 1.95131 3.34533 6.44624
51 1 2.91425 3.22257 6.00988
52 1 2.92046 3.21162 7.06022
457 1 3.72192 3.90595 6.41411
458 1 4.50237 3.46133 6.86913
440 1 6.41395 3.94267 5.71787
449 1 6.05209 3.12544 6.53875
456 1 6.98788 3.43387 6.52296
694 1 8.46464 4.01885 6.70157
762 1 9.22391 3.55336 5.72055
675 1 8.76655 3.11656 6.95149
783 1 9.75634 3.41401 6.61951
777 1 10.9465 3.76831 6.22619
1096 1 12.5089 2.98438 6.94218
771 1 11.9926 3.96899 6.12833
1161 1 14.0403 3.08366 5.76648
1082 1 13.0101 3.00141 5.85672
1172 1 13.2742 4.16214 6.54451
1150 1 14.027 3.59921 7.02725
1133 1 15.0935 3.65689 5.80879
1149 1 14.6229 2.88865 6.68436
1506 1 14.9078 4.25897 6.96273
1418 1 15.6773 2.97337 7.08897
1412 1 17.1067 2.94403 5.74267
1084 1 16.3319 3.61963 6.49114
1164 1 16.5608 4.24988 5.73497
1083 1 16.9683 3.50741 7.13787
1163 1 17.3332 3.87361 6.19501
1751 1 18.529 3.28344 6.22955
1427 1 17.898 3.08484 7.07518
1670 1 19.322 3.15746 6.82173
1726 1 19.1735 4.09014 5.91897
1664 1 21.1457 4.22396 6.26198
1688 1 20.0926 3.86678 6.71855
1690 1 21.1606 3.41674 6.8152
1689 1 22.0429 3.61868 6.42082
1970 1 24.2628 3.0419 5.97905
1969 1 23.3744 3.41669 6.0606
1958 1 23.0545 3.44269 7.06593
2064 1 23.8947 3.96186 6.80966
2045 1 24.914 3.97725 6.05598
2063 1 24.7685 3.48757 7.0218
2137 1 26.7063 3.48811 6.83846
2138 1 25.808 3.83041 6.74958
2372 1 27.584 3.68171 6.01904
2381 1 28.3934 4.23046 6.85488
2382 1 28.2985 3.33465 6.72109
2384 1 29.2669 3.61158 5.77441
149 1 1.24325 4.45619 6.15235
2454 1 0.0834745 4.45124 6.02656
134 1 0.646886 5.28301 6.38114
133 1 0.44583 4.55179 6.90459
547 1 2.61342 4.3745 6.80991
469 1 2.58861 5.37094 6.63775
236 1 1.77948 5.2916 5.80246
192 1 3.08461 4.82895 6.02439
518 1 4.09383 4.82277 6.59922
517 1 4.89838 4.37171 6.38247
521 1 5.09546 5.33757 6.40856
439 1 5.80423 4.68966 5.79388
763 1 6.73378 5.27201 5.81793
464 1 5.90108 4.51864 6.88602
764 1 6.21588 5.48824 6.58887
455 1 7.29632 4.33953 6.33621
693 1 8.4601 4.33312 5.81799
443 1 7.80775 5.17875 6.76951
769 1 9.55456 5.16142 6.28126
765 1 8.98963 4.86085 7.02324
770 1 10.0985 4.43991 6.6896
1103 1 11.1792 5.00082 6.68212
1093 1 11.7109 5.5653 5.80656
772 1 12.3707 4.87993 6.32439
1104 1 11.8534 4.55806 7.11983
1171 1 13.3953 4.8442 5.87698
1192 1 13.8216 4.82329 7.02056
1505 1 14.3332 4.38605 6.19085
1191 1 14.5282 5.50764 6.89338
1501 1 15.6137 5.24836 6.94239
1414 1 15.7278 4.62435 6.1883
1413 1 16.6013 4.99094 6.33414
1665 1 17.9539 5.40197 5.98397
1666 1 18.1611 4.47775 6.16577
1423 1 17.5825 5.275 7.13094
1686 1 19.863 4.95834 6.58201
1405 1 18.8575 4.8497 7.03609
1663 1 20.723 5.08687 6.17786
1754 1 21.9649 4.79116 6.81832
1753 1 21.923 4.78156 5.79941
1684 1 23.0389 4.95113 6.89363
1963 1 23.47 4.89585 5.95109
2054 1 23.9352 5.37151 6.93375
1964 1 24.3683 4.72503 6.34591
1722 1 24.7814 5.70989 6.13605
2043 1 25.5232 4.89452 6.29732
2044 1 25.049 4.7139 7.11178
1811 1 26.1898 4.76325 7.0535
1812 1 26.4759 4.35456 6.19098
2449 1 26.6875 5.41664 5.91152
2371 1 27.4006 4.53622 6.46073
2466 1 28.7224 4.73191 6.03163
2453 1 29.4756 4.37116 6.76448
114 1 0.0421611 6.32747 6.09449
235 1 1.52108 5.75248 6.67218
206 1 2.24571 6.3075 6.01458
220 1 4.05714 5.99069 6.31261
205 1 3.13122 6.47969 6.24724
285 1 3.78275 6.97865 7.13628
839 1 5.00641 6.53882 6.32957
840 1 5.78068 6.17995 5.85803
608 1 6.57615 6.74829 6.3617
849 1 7.07422 6.02531 7.02764
828 1 7.60316 6.09776 6.06558
526 1 7.92914 6.88225 6.65446
832 1 9.7247 6.14703 5.83564
851 1 8.69199 6.31937 5.98226
852 1 8.70255 5.7679 6.77414
822 1 9.38999 7.06445 6.35175
922 1 10.6008 7.12991 5.98417
843 1 10.6251 5.85757 6.18432
844 1 10.4371 6.45924 6.99317
1155 1 11.6179 6.30066 6.56056
1154 1 12.3484 6.60325 5.81931
854 1 12.5554 6.94397 6.77571
1182 1 12.6673 5.79604 6.52606
1181 1 13.6017 6.02992 6.61601
940 1 13.6886 7.07093 6.9978
1178 1 14.8905 5.91064 5.94585
1256 1 14.5387 6.98424 6.34837
1415 1 15.5757 6.90796 6.42647
1416 1 15.9952 6.07379 6.151
1507 1 16.9773 6.06543 6.66342
1500 1 16.7195 6.80733 5.90027
1508 1 16.2611 6.59029 7.02418
1744 1 17.7732 6.35367 5.97938
1743 1 18.1284 6.5259 6.84168
1823 1 17.1745 7.10936 6.84571
1422 1 18.75 6.76066 6.02329
1802 1 19.9746 7.04865 6.09464
1477 1 19.0728 5.79638 6.23896
1826 1 19.175 6.5885 6.85713
1735 1 19.9846 6.10867 6.723
1724 1 20.959 6.0732 6.3307
1740 1 22.1985 5.88239 6.52514
1879 1 22.2651 6.86109 6.7024
1721 1 23.9422 5.80931 5.72758
2113 1 22.977 6.63265 5.74999
2053 1 23.4333 6.14213 6.94708
2116 1 24.0809 6.63227 6.18364
2149 1 24.2621 7.10076 7.04989
2134 1 25.7025 6.17319 6.08949
2115 1 24.9864 6.88635 6.22925
2450 1 26.6525 6.09437 6.58176
2139 1 26.4157 7.07262 6.11283
2435 1 27.5487 6.40563 6.16185
216 1 28.4831 6.00462 6.51386
215 1 29.1781 5.82414 5.90392
2204 1 28.6317 6.99374 6.1348
213 1 0.505561 7.56897 5.76956
224 1 1.39993 7.44198 6.37027
222 1 0.247104 7.16573 6.84353
218 1 0.0642702 8.04377 6.49831
223 1 2.12493 7.88779 6.90912
227 1 2.58567 7.32709 6.16721
2307 1 1.47871 8.27357 5.83213
295 1 2.58436 8.41538 6.08309
270 1 4.0112 7.25362 6.26679
228 1 3.1172 7.82464 6.76426
60 1 4.06939 8.4064 6.50938
611 1 4.95094 7.84937 6.31445
581 1 6.1211 7.87684 6.02649
607 1 5.88837 7.26129 6.80447
927 1 6.63837 8.30636 7.05693
928 1 6.97194 7.46239 6.99155
915 1 7.4258 7.54933 6.0063
586 1 8.04665 8.34029 6.21989
834 1 9.12528 8.07012 6.02283
821 1 9.80728 7.8194 6.66863
857 1 8.63067 7.70969 7.02518
936 1 11.3203 8.0078 5.84922
935 1 10.8359 7.99599 6.71321
1251 1 12.5406 7.56455 5.72198
853 1 11.9288 7.6656 6.5086
1266 1 13.5274 8.54166 5.99684
1166 1 14.2507 8.00133 6.98763
1265 1 13.1163 7.87096 6.62417
1335 1 15.4357 8.01812 6.70404
1575 1 14.7655 8.4567 5.95634
1588 1 16.631 7.98971 6.49233
1806 1 17.7681 7.48594 6.15509
1494 1 17.696 8.50997 6.39607
1825 1 19.1704 7.49794 6.98711
1816 1 18.6213 8.34384 6.54887
1603 1 19.7527 8.41259 7.05186
1793 1 21.078 7.46521 6.25188
1794 1 20.6621 7.69768 7.05422
1884 1 22.1128 7.47727 5.7694
1889 1 21.9272 8.47656 5.78487
1875 1 21.7594 8.36431 6.88948
1886 1 22.7363 8.03346 6.28992
2195 1 23.5733 8.56985 6.78608
1786 1 23.5596 7.64033 5.83284
1785 1 23.2948 7.21553 6.69963
2201 1 24.4437 8.0864 6.06144
2207 1 25.4898 7.73852 6.13805
2141 1 25.0724 8.08469 7.0411
2302 1 26.8587 8.02888 6.15514
2301 1 26.4111 8.28432 6.93466
2440 1 28.5167 8.35489 5.9731
2455 1 27.2733 7.21067 6.6911
217 1 29.191 7.79203 6.57547
2525 1 1.35018 8.71548 6.74242
2312 1 0.977145 9.96907 6.84727
2516 1 0.362517 9.0092 6.84504
315 1 1.83045 9.6152 6.06988
316 1 2.04783 9.65826 6.97722
296 1 2.80712 8.86403 6.9037
50 1 3.11378 9.35396 5.9933
388 1 3.37053 9.8647 6.97299
355 1 4.94418 9.20643 5.95603
623 1 4.88771 8.94644 6.95658
356 1 5.22795 9.99264 6.45499
624 1 5.74812 8.70318 6.68186
945 1 6.18635 9.72428 6.69979
946 1 6.7345 8.99417 6.31036
617 1 7.61927 9.72904 6.30266
838 1 9.03369 8.72651 6.83045
923 1 9.54922 9.18366 5.84898
697 1 8.7854 9.98198 6.82671
837 1 9.99549 8.92434 6.76794
1012 1 11.3311 9.80891 6.57901
669 1 10.5243 9.74133 5.73603
670 1 10.8414 8.86158 6.08606
1241 1 12.3685 8.6116 5.99558
1568 1 12.3837 9.64839 6.6743
1487 1 13.3864 9.80956 6.98939
1488 1 13.3457 9.70595 6.02122
1258 1 15.3009 9.04967 7.04753
1257 1 14.3795 9.03309 6.80507
1324 1 15.7079 9.97061 6.47774
1493 1 16.9425 9.09411 6.43661
1336 1 15.955 8.7462 6.25978
1581 1 17.5377 9.75271 6.92736
1582 1 18.0009 9.83948 6.05306
1819 1 19.8323 9.3355 6.38101
1815 1 18.8585 9.10121 5.99936
1891 1 18.8971 9.22302 7.0521
1820 1 20.6216 8.82027 6.58616
1644 1 21.915 9.37993 6.22122
2196 1 22.8416 9.06034 6.42911
1921 1 24.0365 9.96103 7.02098
2209 1 22.8638 9.92872 6.94511
1953 1 23.4564 9.87617 6.11944
1984 1 25.4361 9.97396 6.26341
2208 1 25.3511 8.72332 6.16045
2125 1 25.2535 9.18604 7.10688
2126 1 24.5102 9.10858 6.53469
2532 1 26.4669 9.92669 6.21894
2216 1 26.8729 9.3941 7.06589
2297 1 28.5279 9.66011 6.1048
2521 1 27.4776 9.65925 6.14455
2522 1 27.7731 8.93976 6.6707
2298 1 28.4016 9.83313 7.03436
2294 1 29.5369 9.57994 5.79578
2515 1 29.4566 8.78681 6.85352
66 1 1.2872 1.02815 8.53151
2305 1 0.301169 0.866738 8.44389
2311 1 1.45319 0.726571 7.27266
74 1 2.23924 0.79488 8.01912
1 1 3.02181 1.32938 7.21487
2 1 3.49599 0.679317 7.79227
453 1 5.6833 1.26092 8.25126
605 1 4.73809 0.809716 7.80845
371 1 5.44314 0.129504 7.55953
372 1 6.21282 0.647115 7.39013
390 1 6.75891 0.475007 8.3302
621 1 8.11893 0.56798 7.4798
704 1 8.40835 0.766212 8.48653
699 1 9.42505 0.152654 7.95596
679 1 9.11912 1.30742 7.51086
1018 1 10.0978 1.04224 7.3829
696 1 10.0606 0.888585 8.54962
933 1 10.8028 0.232054 8.30577
1011 1 11.8305 0.365296 7.16919
1261 1 11.542 0.869803 7.90338
1087 1 12.4436 1.32473 7.40473
1591 1 13.0077 0.393857 7.83774
1337 1 14.0708 0.0428059 8.54465
1009 1 15.4441 0.23844 7.56228
1023 1 14.4442 0.942285 7.74761
1010 1 16.1429 0.91656 7.50813
1349 1 17.8336 0.555021 7.69889
1899 1 19.7045 0.622009 7.55815
1656 1 20.4872 1.34316 7.34511
2220 1 21.354 0.960062 8.07755
1652 1 20.2541 0.705912 8.42365
1694 1 22.3549 1.21003 8.52841
2219 1 22.1314 0.439927 7.80061
2218 1 23.1132 0.737733 7.58242
2217 1 23.5933 0.0215943 7.93991
1993 1 24.2924 0.866546 8.04376
1994 1 25.0339 0.227009 8.10091
1990 1 25.849 0.875198 7.99493
1977 1 26.7091 1.23409 7.23292
1924 1 26.7098 1.00774 8.47199
2530 1 27.9541 0.61422 7.97861
2529 1 27.6074 1.41599 8.33453
1997 1 29.1507 0.909754 8.21789
2378 1 0.887351 1.57148 7.67527
2399 1 0.0753697 2.37002 7.2697
81 1 1.02294 2.65373 7.89432
82 1 0.476757 2.22638 8.52371
75 1 2.73294 2.17468 8.40554
144 1 1.88943 2.59038 7.26639
76 1 1.84651 1.81659 8.20637
68 1 4.01969 1.48016 7.30876
307 1 3.41457 2.37297 7.41957
79 1 3.96174 1.47857 8.43477
366 1 4.9736 1.82105 7.37325
450 1 5.4964 2.78646 7.22665
308 1 4.31932 2.46473 7.71174
707 1 6.68697 1.77732 7.97732
708 1 6.05253 1.9127 7.33239
452 1 6.03267 2.49795 8.15393
702 1 7.93742 2.50668 7.69503
703 1 8.43884 1.71256 8.27077
767 1 7.19138 2.40027 8.54217
676 1 9.2486 2.41578 7.2551
680 1 9.43371 1.87496 8.16923
1116 1 8.82716 2.83466 8.4557
1017 1 10.9494 1.58027 7.41745
1092 1 11.0517 2.78038 8.02174
1268 1 11.3489 1.80925 8.48661
1006 1 10.0381 2.65175 8.46987
1263 1 12.0921 2.28586 7.75006
1088 1 12.3165 1.43401 8.3637
1022 1 13.5874 1.48566 7.47624
1024 1 14.0304 1.45075 8.45763
1264 1 13.0069 2.30815 8.04982
1016 1 13.9048 2.83611 7.68066
1015 1 14.4666 2.03371 7.76986
1028 1 15.4933 1.8764 7.46974
962 1 15.0476 2.73031 8.2752
1027 1 15.2621 1.60172 8.40391
1365 1 16.5107 2.24387 7.28874
1345 1 16.3031 2.01782 8.24231
1346 1 16.958 1.51089 7.85289
1667 1 18.1273 1.64254 7.72304
1428 1 17.4022 2.84316 7.75074
1325 1 18.7006 2.53551 7.43067
1906 1 19.9023 1.92688 8.2022
1668 1 18.8915 1.4879 7.33905
1905 1 19.6473 2.09704 7.25301
1747 1 20.4138 2.78778 7.58944
1700 1 21.0547 1.94664 8.09416
1979 1 22.0563 1.71973 7.62754
1645 1 22.7593 2.46642 7.31739
1996 1 22.4077 2.3523 8.37416
2214 1 24.1562 1.90722 7.57536
2213 1 24.1677 1.98512 8.50874
2056 1 23.1504 1.67982 7.98107
1971 1 25.1662 1.60999 7.49003
1981 1 25.5008 2.44155 8.43817
2075 1 25.2347 2.7685 7.49132
1968 1 26.1922 2.2031 7.21486
1923 1 26.4712 1.84237 8.19343
2380 1 27.0456 2.6618 8.45705
2379 1 27.2831 2.45854 7.5021
1998 1 28.6593 1.82235 8.33888
2309 1 28.9365 2.78372 7.49501
2400 1 29.5688 2.41499 8.08305
72 1 1.35026 4.25608 8.27306
2472 1 0.272318 3.25489 7.90609
160 1 2.06089 2.9572 8.19064
159 1 2.14779 3.66914 7.56937
548 1 3.32715 4.0636 7.48281
524 1 4.10535 3.47511 7.93541
405 1 3.12459 3.56358 8.49185
523 1 4.99599 3.86725 8.09019
463 1 6.07335 3.80469 7.39947
791 1 7.02072 2.95953 7.53273
877 1 7.01857 4.15999 7.42581
378 1 5.98896 3.44546 8.50953
701 1 7.90194 3.41562 7.41231
784 1 9.38167 3.60184 7.5152
774 1 8.69382 3.85085 8.56263
1105 1 10.64 3.79579 7.32417
1095 1 11.5732 3.20242 7.2731
1091 1 11.5221 3.67212 8.17105
1099 1 13.1087 3.39526 7.70436
1512 1 14.1478 3.97394 7.9349
1511 1 14.8689 3.468 7.57873
1378 1 15.4703 3.96236 8.55813
1436 1 16.5206 3.16122 8.04995
1417 1 15.927 3.84815 7.44296
1518 1 17.4756 3.87932 8.29014
1517 1 18.3129 3.77219 7.92778
1748 1 19.6007 3.23072 7.82036
1669 1 19.0545 3.94499 7.29261
1284 1 19.7519 4.1527 8.53863
1682 1 21.0268 3.89374 7.72652
1681 1 20.6682 3.32772 8.43082
1985 1 21.5926 2.87624 7.55381
1755 1 22.4434 4.17981 7.67615
2059 1 21.8573 3.54862 8.29005
2060 1 22.7952 3.49026 8.55497
2071 1 23.9826 3.34669 8.29482
2093 1 23.4425 4.2488 8.18217
2072 1 24.4235 4.15951 7.92778
2057 1 25.6959 4.15897 7.86513
2076 1 26.139 3.21716 7.72346
2058 1 26.6054 4.16791 8.06581
2061 1 27.5225 3.4677 7.55646
2393 1 28.0944 2.8803 8.29221
2471 1 29.628 3.36093 7.14772
145 1 28.5892 3.77063 7.95949
2324 1 29.6475 4.27628 7.74873
2323 1 0.308136 4.89033 7.93159
140 1 1.03337 5.56914 8.26501
147 1 2.59393 4.94892 7.62324
148 1 1.7386 4.6015 7.35423
136 1 2.10747 5.15897 8.48107
153 1 4.20329 4.54615 7.69964
154 1 3.73303 5.33217 7.44506
533 1 4.9819 5.28359 7.45467
528 1 5.12951 5.23274 8.51658
527 1 5.86491 4.84172 8.08008
878 1 6.91981 4.42009 8.39895
850 1 6.64094 5.3954 7.5567
773 1 8.47325 4.29188 7.76145
444 1 7.63466 5.10008 7.73317
766 1 8.77203 5.38742 7.76703
848 1 9.60352 4.57578 7.77521
847 1 10.0516 5.3581 7.32138
1106 1 10.8821 4.6523 7.59703
787 1 10.9268 5.58779 8.15087
1108 1 12.1669 5.68344 7.3381
1107 1 12.187 5.07636 8.11339
1100 1 12.8035 4.31133 7.53427
1176 1 13.2041 5.31605 7.79653
1020 1 13.1853 4.52866 8.53977
1117 1 14.4306 5.64885 7.96117
1118 1 14.8477 4.74201 8.05685
1426 1 15.8224 4.77571 7.87839
1425 1 16.7162 4.45802 7.58118
1502 1 16.4152 5.55766 7.33733
1042 1 15.8437 5.68616 8.24411
1361 1 17.0621 5.26757 8.26945
1424 1 17.8743 4.31338 7.24008
1439 1 18.1766 4.91269 8.04156
1406 1 18.5466 5.69462 7.32783
1440 1 19.0875 4.80826 8.0874
1685 1 19.865 5.32601 7.48008
1687 1 20.0423 4.29897 7.53017
1746 1 20.8338 4.76822 7.15636
1745 1 20.7544 4.83534 8.08512
1749 1 21.6721 5.69192 7.77292
1756 1 21.8068 4.75272 8.07364
1683 1 22.7743 5.29978 7.74147
2136 1 24.4145 5.44752 7.91352
2004 1 25.4816 5.13783 8.19422
2074 1 25.579 5.68558 7.35995
2048 1 26.6568 5.29427 7.91928
2047 1 27.5081 5.49098 7.60347
2062 1 27.675 4.39312 7.5189
2476 1 28.3618 5.60494 8.05351
146 1 28.5033 4.62173 8.32598
2375 1 29.7177 5.57681 7.14903
2376 1 28.8878 5.0651 7.26436
2461 1 0.719658 6.80709 8.09635
2462 1 0.705975 6.31803 7.23443
470 1 2.81071 5.99818 7.26524
139 1 1.69805 5.79145 7.66751
174 1 2.32605 6.23379 8.28492
231 1 2.52189 7.06641 7.63851
232 1 1.61232 6.81159 7.32055
540 1 3.34701 6.29656 7.9965
519 1 4.20974 6.21214 8.51552
286 1 4.57281 6.48137 7.40347
534 1 5.60504 6.01163 7.47877
609 1 5.49525 6.95454 7.75239
535 1 5.90453 6.0687 8.5058
610 1 6.48165 6.74779 7.70302
560 1 7.47971 6.28266 8.11361
525 1 8.20655 6.32235 7.37713
1184 1 9.75126 6.09194 8.2641
1183 1 9.68042 7.09508 8.41072
858 1 9.09681 6.90413 7.38279
932 1 11.2761 7.04687 7.33048
931 1 11.5295 6.48172 8.04531
1187 1 12.569 7.10846 8.49833
1175 1 13.0004 6.24985 7.75916
1193 1 13.4551 7.10482 8.08258
1041 1 15.2948 6.13579 7.5846
939 1 14.3797 6.63736 7.46031
1253 1 15.007 6.62474 8.45969
1509 1 16.4063 6.7608 8.08428
1429 1 17.4628 6.28386 7.56863
1430 1 18.0229 5.97797 8.24651
1851 1 19.1957 5.89086 8.21241
1831 1 18.5911 6.82285 7.84036
1736 1 19.8691 6.4737 7.60973
1750 1 20.8449 5.84362 7.37191
1803 1 21.3712 6.78937 7.24319
2083 1 20.057 6.13212 8.54621
1809 1 20.5574 7.03576 8.09002
1804 1 22.1972 6.60667 7.69757
2135 1 24.0189 6.34526 7.86282
1814 1 23.2284 7.05245 7.81907
2073 1 24.9296 6.31066 7.19598
2152 1 25.089 6.25619 8.50883
2156 1 26.0921 7.13497 8.35942
2456 1 26.542 7.10907 7.18636
2086 1 26.2017 6.19463 8.17896
2154 1 27.9449 6.63817 7.26415
2153 1 27.1723 6.54484 7.82004
2463 1 29.7144 5.81631 8.21854
2475 1 28.7733 6.2669 7.5569
221 1 0.886077 7.74976 7.26576
311 1 0.516854 8.04046 8.15869
161 1 1.55019 7.78162 8.05774
318 1 3.86377 8.08172 7.67013
539 1 3.43163 7.21281 8.36269
317 1 2.95223 8.13678 7.79375
612 1 4.80487 7.58357 7.23957
619 1 4.46713 7.30173 8.25649
298 1 4.84174 8.39334 7.87623
297 1 5.75823 8.04774 7.70119
876 1 6.93413 7.76902 8.04188
614 1 7.76845 8.20762 7.4945
948 1 8.2845 8.22152 8.31058
875 1 7.70475 7.28668 7.77857
929 1 8.69518 7.22405 8.23071
692 1 9.37824 7.8975 7.63861
691 1 10.2127 7.57238 7.68263
942 1 11.273 8.39129 8.18864
869 1 10.8806 7.43371 8.4343
1244 1 12.0292 8.38991 7.22011
870 1 11.7307 7.5311 8.09479
1274 1 12.7834 7.84637 7.69724
1179 1 13.4842 8.54005 7.43788
1165 1 14.9586 8.2378 7.62272
1344 1 15.4032 7.16332 7.54066
1343 1 15.9705 7.99246 7.55346
1584 1 16.6105 8.0517 8.43202
1824 1 17.958 7.56182 7.27442
1510 1 17.2174 7.24906 7.92477
1587 1 17.1572 8.22499 7.29523
1910 1 18.7316 8.2371 7.91225
1832 1 19.3063 7.30182 8.12793
2147 1 21.2986 7.61152 7.82077
1828 1 20.0812 7.99754 8.04409
1880 1 22.4872 7.50982 7.30328
2225 1 22.2703 8.19344 8.28256
1760 1 22.1611 7.14613 8.5702
2150 1 24.0289 7.75111 7.68182
2143 1 23.38 8.50605 8.31976
2142 1 25.4837 7.24082 7.16552
2221 1 24.9478 7.3938 8.17399
2227 1 25.8841 8.50079 7.80414
238 1 27.907 7.78506 7.33202
2299 1 27.3081 8.44145 7.83275
2300 1 28.0227 8.03062 8.3746
237 1 28.7937 7.56171 7.62588
2408 1 29.8209 7.20711 8.45615
312 1 29.8334 7.76813 7.54738
2289 1 0.474391 9.64279 7.96892
2290 1 1.42249 9.88854 7.84462
63 1 2.67223 9.82447 8.01577
2526 1 1.57601 8.71789 7.66656
55 1 3.52631 9.25786 7.91752
387 1 4.31617 9.79806 7.30485
379 1 5.53756 9.15438 7.68246
629 1 4.68141 9.72285 8.38648
380 1 6.42002 9.5932 7.83255
626 1 7.32261 8.91059 8.27187
613 1 7.46009 9.11867 7.17049
687 1 8.42084 9.22015 7.77898
947 1 9.06132 8.6996 8.51803
688 1 9.39979 9.0852 7.6235
1243 1 11.2599 8.99097 7.26537
700 1 10.2102 9.86013 7.55499
941 1 10.47 8.76839 7.83602
1567 1 12.473 9.43316 7.60674
1004 1 11.7118 9.90092 8.23242
1273 1 12.5681 8.59346 8.33424
1180 1 13.3741 9.31463 8.1457
1321 1 14.428 9.7401 7.4976
1594 1 15.0699 9.67465 8.46593
1593 1 15.4622 8.80406 8.43107
1342 1 16.2806 9.00487 7.77282
1341 1 16.4655 9.89213 7.49822
1912 1 17.4872 8.68815 8.16252
1350 1 17.4381 9.70395 7.98583
1911 1 17.9975 8.93405 7.42346
1892 1 18.9617 9.82607 7.79151
1604 1 19.5871 8.87072 7.9041
2148 1 21.0879 8.58468 7.75937
1900 1 20.1921 9.79864 7.61809
2229 1 21.1133 9.79308 8.13414
1876 1 21.786 9.3021 7.27463
2232 1 22.2206 9.36084 8.26322
2231 1 22.8679 9.12461 7.52087
2205 1 24.1527 9.01624 7.82633
2206 1 25.0224 8.96473 8.24557
2215 1 26.8555 9.95416 7.82668
2484 1 25.868 9.68696 8.14581
2487 1 27.8423 9.40712 7.75241
2284 1 29.4516 9.65267 7.51777
2488 1 28.6775 9.52745 8.23336
2524 1 28.6524 8.67664 7.48812
2523 1 29.4681 8.66733 8.01018
3 1 0.567477 0.545 9.77067
65 1 0.941333 0.156715 8.83083
306 1 1.48983 0.955899 9.47972
11 1 2.45411 0.85128 9.60744
64 1 2.16845 0.0658546 8.82319
73 1 2.94048 0.934045 8.74064
639 1 3.47358 0.670846 9.97974
6 1 3.73461 0.105433 8.84282
77 1 4.0882 1.3663 9.46416
606 1 4.66308 0.804912 8.73429
386 1 5.44309 0.923735 9.44162
385 1 5.61759 0.231942 8.87931
712 1 7.14143 1.33916 8.80568
384 1 6.49957 0.886722 9.85892
389 1 7.2009 0.129116 9.09034
926 1 8.16629 0.0568119 9.47786
715 1 8.99829 0.656165 9.3193
1025 1 10.9261 0.942755 9.16875
1038 1 10.343 0.181096 9.83203
1026 1 11.234 0.00477092 9.16979
1262 1 11.8279 0.737253 8.79644
1592 1 13.081 0.725289 8.76534
1355 1 14.0004 0.66935 9.31585
966 1 13.0653 0.159728 9.72496
1030 1 12.9519 1.27869 9.93064
963 1 15.6987 0.563937 9.4797
1338 1 14.8903 0.65886 8.61378
964 1 15.0391 1.20418 9.49698
1577 1 16.0476 0.694328 8.62831
1357 1 16.7568 0.33763 9.48675
1329 1 18.0892 1.04055 8.6766
1330 1 17.2413 0.623907 8.58308
1358 1 17.7133 0.500317 9.63679
1758 1 19.3332 0.58422 9.00752
1618 1 18.7274 1.04592 9.867
1676 1 20.3369 0.687007 9.62641
1651 1 21.0755 0.480098 8.91104
1901 1 22.4924 1.14804 9.64921
2092 1 22.163 0.216417 9.13683
2238 1 23.1967 0.686787 8.58497
1915 1 22.8646 0.0927839 9.91326
2237 1 23.6024 0.809332 9.46023
1991 1 24.5919 0.968754 9.65225
1999 1 25.134 0.202338 9.20848
1989 1 25.3286 1.33685 8.63096
1935 1 26.1543 0.445197 9.7808
2483 1 26.4856 0.0142061 8.77415
2321 1 27.5146 1.04923 9.30814
2481 1 28.4206 0.984521 8.92714
2270 1 28.6008 0.882393 9.92104
2269 1 29.5407 0.950752 9.61611
2306 1 29.7678 0.0989691 8.81096
2482 1 28.7518 0.0794856 9.13507
157 1 1.37059 2.45902 8.99148
305 1 0.649269 1.49483 9.25355
478 1 2.2558 2.75377 9.30555
80 1 3.79189 2.47238 8.62405
395 1 3.01957 1.81126 9.51528
396 1 3.44782 2.66298 9.62846
454 1 5.09126 2.01201 8.61167
465 1 5.13002 1.82106 9.82521
472 1 4.61749 2.50389 9.3545
451 1 5.82807 2.5458 9.10267
383 1 6.21637 1.65812 9.33187
711 1 7.98205 1.4466 9.23532
950 1 7.42255 2.22237 9.76956
768 1 7.94906 2.76873 8.9968
713 1 9.26099 1.90147 9.25849
695 1 10.2639 1.71075 9.17219
1267 1 11.6814 1.66449 9.35826
1036 1 12.0972 2.49006 9.85153
1035 1 11.6005 2.72598 9.03107
1102 1 13.9474 2.40942 8.79771
1101 1 13.144 1.98384 9.0936
1340 1 13.9624 1.72288 9.66631
1044 1 13.0415 2.84974 9.87324
1339 1 14.649 2.34443 9.64775
1363 1 15.6519 2.5449 9.97819
1432 1 16.8529 1.50163 9.16483
1364 1 15.7749 1.93471 9.25754
1302 1 16.5341 2.56008 9.16195
1367 1 17.6036 2.53581 9.79153
1368 1 17.878 1.60193 9.52385
1431 1 17.3566 2.0912 8.58789
1285 1 18.5473 2.2893 8.6902
1757 1 19.2079 1.55443 9.0228
1606 1 19.8211 1.55255 9.73586
1286 1 18.5915 2.55998 9.58898
1610 1 19.5135 2.64503 8.89761
1605 1 20.4311 1.59557 9.00954
1696 1 20.4242 2.61001 9.89255
1699 1 21.0472 2.50347 8.85833
1693 1 21.6064 1.66186 8.96566
1995 1 22.4728 2.73298 9.21256
2055 1 23.2299 1.66747 8.92937
1902 1 22.8604 2.05241 9.82623
2069 1 23.3768 2.63845 8.85132
1992 1 24.0115 1.73723 9.84817
1982 1 24.9049 2.44442 9.14946
2008 1 25.5804 1.47949 9.92626
2080 1 26.7401 1.91404 9.2002
2079 1 25.9224 2.41673 9.49766
2322 1 27.6121 1.79778 9.83138
2390 1 27.6157 2.74248 9.28787
2243 1 28.5683 1.90879 9.56811
2249 1 29.6955 1.71415 8.81595
2250 1 29.745 2.52858 9.30561
158 1 0.795438 3.01572 9.6349
90 1 0.816514 3.55442 8.70887
132 1 0.030912 3.98154 9.03565
89 1 1.61825 3.54261 9.22231
416 1 2.5961 3.71547 9.5026
545 1 3.92723 3.55463 9.30408
471 1 4.99386 3.0735 8.65819
546 1 4.61145 4.11549 9.01053
543 1 5.35387 3.51978 9.54046
377 1 6.32229 4.03554 9.21603
468 1 6.60336 3.09932 9.61721
531 1 7.65196 3.77221 8.71727
786 1 7.43946 3.66331 9.94971
798 1 8.49471 3.48435 9.86881
1115 1 9.30915 3.31155 9.1304
1005 1 10.2633 2.9498 9.40754
1110 1 10.485 3.721 8.72905
855 1 10.5917 4.06243 9.69848
1058 1 12.0992 3.51388 9.6911
1019 1 12.4741 3.88252 8.63258
1047 1 13.0149 4.02329 9.59799
1031 1 14.0637 4.15767 9.00343
1032 1 13.5501 3.41495 8.69695
1051 1 14.0437 3.36771 9.85335
1437 1 15.1637 3.77212 9.8059
961 1 14.7193 3.28346 8.96917
1377 1 15.7813 3.20767 9.12352
1835 1 16.3039 4.09278 9.56981
1435 1 16.5364 4.02485 8.57339
1295 1 17.7673 3.67986 9.75476
1301 1 17.2757 3.11055 9.0592
1296 1 18.6924 3.55757 9.92322
1294 1 19.6863 3.52047 9.4767
1609 1 18.8062 3.32354 8.81087
1695 1 20.7529 3.58125 9.84553
2067 1 21.6679 4.12989 9.98552
2068 1 21.7055 3.57575 9.29504
1940 1 22.6433 3.68064 9.60994
2070 1 23.6692 2.94887 9.6579
2088 1 23.7132 4.0343 9.52587
2077 1 25.1926 3.44732 8.57842
2012 1 24.6703 3.6789 9.68547
2387 1 25.6997 3.72636 9.43943
2388 1 26.2113 3.50911 8.71079
2389 1 26.8275 3.25596 9.61521
2394 1 28.1245 3.69238 8.85765
131 1 29.2499 3.58857 8.87308
71 1 1.101 4.72324 9.05655
2464 1 0.181261 5.60985 9.0963
83 1 1.30232 5.42359 9.87773
2396 1 1.88995 4.67023 9.71303
226 1 2.80286 5.27529 9.60464
406 1 2.96355 4.48383 8.69619
135 1 2.96071 5.54574 8.59204
485 1 3.40748 4.38994 9.78078
551 1 4.00176 5.1724 9.26964
530 1 5.43783 4.6447 9.50299
529 1 6.15127 5.20611 9.29611
785 1 7.55847 4.4761 9.59025
532 1 7.91495 4.70359 8.62423
790 1 8.44371 5.453 9.09841
776 1 9.67253 4.2982 8.96458
795 1 8.69168 4.34737 9.47924
789 1 9.40421 5.42653 9.37027
775 1 9.92606 5.1839 8.58189
856 1 10.5518 5.01754 9.47953
1109 1 11.1003 4.51253 8.68848
1129 1 11.5498 4.68443 9.72377
1199 1 12.3296 5.53343 9.88289
788 1 11.5882 5.64624 8.87818
1130 1 12.3084 4.9057 9.20205
1111 1 13.5429 5.43297 9.01256
1112 1 13.717 4.90793 9.78047
1446 1 15.6138 5.38571 9.77454
1445 1 15.3043 4.71036 9.19759
1362 1 16.5098 5.07004 9.05562
1520 1 17.5684 5.31046 9.33506
1836 1 17.1991 4.33299 9.27572
1433 1 18.2323 4.75668 9.89853
1434 1 18.1779 4.34824 9.0174
1845 1 19.9884 5.49958 9.65868
1283 1 19.1058 4.53991 9.22212
1379 1 18.7309 5.66114 9.50155
1763 1 21.1356 5.36741 9.89878
1370 1 20.0286 5.06846 8.72145
1369 1 20.5318 4.46181 9.27905
1939 1 22.4288 4.36279 8.9922
1834 1 22.1345 5.05526 9.77339
1833 1 21.5219 4.79535 9.04099
2145 1 22.6285 5.44987 8.88848
2094 1 23.8711 4.79368 8.70407
1761 1 23.2311 4.7986 9.96373
2146 1 23.4728 5.67439 9.16989
2087 1 24.2815 4.79172 9.67093
2078 1 24.9396 4.32817 8.92979
2001 1 25.557 4.66096 9.81484
2151 1 24.7269 5.40789 8.9499
2329 1 26.822 4.66557 9.45864
2003 1 26.0172 4.61073 8.80679
2330 1 27.8 4.44547 9.522
2467 1 27.5759 5.11853 8.7212
2468 1 28.2558 5.47796 9.26067
86 1 29.3895 5.03606 9.65787
85 1 29.5304 4.89502 8.65402
2404 1 0.834358 6.50307 9.63014
230 1 1.83083 6.97412 9.33536
173 1 1.81451 5.93959 9.12326
225 1 2.60303 6.25667 9.71182
552 1 3.59625 6.03349 9.49215
520 1 4.07064 6.91901 9.14915
632 1 3.37661 7.05554 9.85455
536 1 5.17949 6.6025 8.8957
627 1 5.16057 5.76494 9.65486
954 1 6.16697 7.06834 8.73373
871 1 6.82096 6.22999 9.5316
872 1 5.89006 6.46989 9.65678
538 1 7.77899 6.69705 9.57691
930 1 8.3985 6.42479 8.63419
474 1 7.78133 5.72556 9.92116
559 1 7.44978 5.74954 8.891
554 1 9.1738 6.53508 9.47822
842 1 10.7066 6.2952 8.87191
841 1 10.2941 5.99973 9.73383
1276 1 10.2785 7.05159 9.42189
866 1 11.8398 6.59089 9.2067
865 1 12.6075 6.12049 8.74766
1196 1 13.3512 5.85737 9.98553
1194 1 13.6401 6.46895 8.76497
1530 1 14.1175 7.03298 9.67755
1195 1 13.1464 6.73082 9.58039
1596 1 15.3653 7.04092 9.3615
1120 1 14.5718 5.78244 9.05943
1046 1 16.3534 6.82641 9.40173
1045 1 16.7619 6.10277 8.97559
1830 1 17.8868 6.38666 9.38234
1852 1 18.9123 6.49459 8.94474
1846 1 19.9918 6.49443 9.4831
2084 1 20.9885 5.88286 8.59292
1810 1 21.1517 7.04831 8.84872
1817 1 21.8846 5.99363 9.41665
1818 1 22.6722 5.8602 9.95612
1759 1 22.5524 6.86371 9.40827
1813 1 22.9258 6.50256 8.57498
2132 1 24.0903 7.06063 8.59568
2131 1 23.695 6.70929 9.37553
2182 1 24.5633 6.0442 9.98775
2421 1 25.6712 5.78135 9.92476
2157 1 24.5581 7.13214 9.69868
2416 1 26.665 5.93178 9.86384
2155 1 26.2463 6.56744 9.13024
2085 1 27.045 5.97411 8.6421
2406 1 27.018 6.91845 9.96275
2470 1 28.0617 6.4563 8.74497
2469 1 29.0267 6.26591 8.8381
2494 1 28.7586 6.87724 9.63137
2478 1 29.8705 7.10627 9.51544
2477 1 0.668133 7.33469 9.00917
249 1 0.51787 8.20376 9.5138
250 1 1.32194 7.77103 9.78142
162 1 2.08663 8.30713 8.70107
229 1 2.45749 7.30828 8.66288
234 1 2.30209 8.19648 9.87722
310 1 3.11554 8.00578 9.21553
631 1 3.97149 7.78156 9.9208
620 1 4.10444 7.94167 8.93339
541 1 5.04031 7.45029 9.62652
601 1 5.36912 7.8898 8.68559
542 1 4.79676 8.36567 9.53924
953 1 6.26815 8.05252 8.81859
558 1 6.79131 7.45001 9.47779
557 1 7.08598 8.3313 9.18965
397 1 5.84975 8.52092 9.6241
537 1 7.5103 7.17043 8.76001
959 1 8.04334 8.18783 9.45333
960 1 8.50989 7.34255 9.39241
937 1 9.46033 7.7117 9.25441
882 1 11.0116 7.79177 9.39048
881 1 10.3372 8.15523 8.84989
1033 1 12.2604 7.5911 9.62991
1034 1 12.6169 8.46157 9.67467
1188 1 13.2293 7.67915 8.93841
1516 1 14.1078 8.08421 9.43279
1595 1 15.6375 7.4789 8.61918
1254 1 14.4984 7.41557 8.72297
1586 1 15.2972 8.13199 9.32246
1597 1 16.6012 7.86476 9.55326
1503 1 17.5861 7.60485 9.41426
1909 1 18.4808 7.68424 8.59769
1504 1 17.6198 8.54861 9.40961
1514 1 19.1787 7.29816 9.581
1908 1 18.6537 8.25037 9.66702
1822 1 19.5018 7.97218 8.89256
1821 1 20.3479 7.58054 9.28457
1842 1 21.8908 7.46671 9.9152
2226 1 21.6153 8.31899 8.99837
2239 1 22.8765 7.89669 9.87978
2144 1 23.0468 7.73043 8.82497
2081 1 23.786 8.26488 9.48112
2222 1 24.5714 8.18846 8.688
2158 1 25.3645 7.46741 9.19484
2492 1 26.923 8.18826 8.75685
2405 1 26.4994 7.51724 9.36354
2228 1 25.9228 8.33167 8.71074
2490 1 26.0082 8.56162 9.96793
320 1 27.769 7.4344 9.50157
2485 1 28.7144 7.24217 8.58663
2486 1 28.8131 7.86277 9.28806
2407 1 29.7047 8.07029 8.81476
2480 1 0.264832 8.89106 8.77151
314 1 1.53831 9.85486 9.70104
313 1 1.46765 9.05271 9.20801
233 1 2.4818 9.10967 9.73036
56 1 2.99806 9.09746 8.72065
392 1 4.1808 9.66287 9.74796
5 1 3.05968 9.95124 9.4968
309 1 3.64466 8.70922 9.51477
602 1 5.56608 8.87311 8.64036
630 1 4.32744 8.9341 8.77518
327 1 5.15803 9.4498 9.54686
328 1 6.08588 9.63098 9.71207
561 1 6.5587 9.14449 8.83402
562 1 6.96757 9.2002 9.66635
625 1 7.77824 9.21564 9.01541
925 1 8.68849 9.73009 8.75994
716 1 9.40469 9.9027 9.43647
938 1 9.60186 8.68616 9.41449
893 1 8.64669 9.086 9.6043
934 1 10.342 9.57689 8.81005
1037 1 10.2267 9.27887 9.97327
1003 1 12.5733 9.82326 8.65941
1272 1 11.6283 9.04637 9.06312
1590 1 13.5879 8.97547 9.15112
1515 1 14.4927 8.83952 8.92753
1351 1 14.7801 9.78734 9.48902
1352 1 15.548 9.28085 9.55049
1523 1 16.6721 9.22258 9.81395
1583 1 16.4246 8.85514 8.95622
1578 1 16.525 9.86309 8.66278
1546 1 18.4079 9.57629 9.68307
1674 1 18.3196 9.99064 8.69421
1907 1 18.5296 8.70465 8.80194
1673 1 17.5428 9.55596 9.03035
1602 1 19.5937 8.85742 9.4262
1601 1 19.1622 9.4882 8.84864
1827 1 20.3953 8.653 8.62688
2230 1 21.3096 9.28733 8.97676
1680 1 20.7312 9.78635 9.75776
1679 1 20.2557 9.67799 8.93135
2091 1 21.7906 9.69783 9.82479
1929 1 23.8545 9.60537 9.76514
2082 1 22.9965 8.83598 9.57113
2212 1 23.2872 9.75818 8.95112
2211 1 24.2458 9.48212 8.78116
2000 1 25.6255 9.43304 9.26883
1928 1 26.5958 9.26317 9.57407
2491 1 26.9328 9.09997 8.57987
2320 1 27.5005 9.96239 9.70001
244 1 27.7023 9.99137 8.70326
243 1 27.9045 9.10644 8.90389
2479 1 29.3994 9.08945 8.90108
2418 1 29.1345 8.92402 9.92692
247 1 29.766 9.7111 9.79544
ITEM: TIMESTEP
12000
ITEM: NUMBER OF ATOMS
2532
ITEM: BOX BOUNDS pp pp pp
0.0000000000000000e+00 3.0000000000000000e+01
0.0000000000000000e+00 1.0000000000000000e+01
0.0000000000000000e+00 1.0000000000000000e+01
ITEM: ATOMS id type x y z
4 1 0.920956 0.2429 0.581955
7 1 2.20157 1.08536 1.36107
8 1 1.96332 0.705689 0.490619
403 1 4.20049 1.27516 0.912194
640 1 3.17228 0.495239 0.894141
376 1 4.29265 0.12474 0.817608
461 1 5.32725 0.130897 0.796728
404 1 5.13263 1.26594 0.804713
375 1 4.75573 0.539834 0.0877421
944 1 6.53355 0.177301 0.546187
705 1 6.65056 1.17028 0.91475
706 1 7.41049 0.588236 1.15481
949 1 7.48803 1.38005 0.185131
943 1 7.36774 0.319626 0.0566959
720 1 8.37566 0.858413 0.495818
719 1 9.20901 0.380639 0.413144
1039 1 9.71977 1.21452 0.0113553
1040 1 10.6684 1.3078 0.152929
890 1 10.1557 0.805425 0.996683
1209 1 11.5877 0.223273 0.172211
974 1 12.1223 1.08437 0.464356
662 1 11.6714 0.531578 1.36851
973 1 12.0882 1.39865 1.36273
965 1 13.4331 0.341111 0.593619
1029 1 13.0945 1.25196 0.879213
1289 1 14.1108 0.969232 1.39705
1356 1 14.3765 0.550444 0.21903
1211 1 15.1606 0.0470112 1.07713
1282 1 15.8071 0.944705 0.591157
1543 1 17.1795 1.07749 0.298736
1298 1 17.6942 1.26793 1.25001
1617 1 18.2294 0.695245 0.652348
1544 1 17.3298 0.135003 0.517862
1843 1 19.2481 0.131842 0.146407
1613 1 19.2863 0.424957 1.14334
1614 1 19.3744 1.3405 1.10314
2065 1 20.2731 0.52403 0.70875
2066 1 21.1492 0.060446 0.685784
1675 1 21.0073 1.12348 0.241233
1916 1 22.3268 0.248764 0.704744
1612 1 21.5258 1.24052 1.23739
2009 1 23.2435 1.06201 0.404799
2236 1 23.954 0.549306 1.01166
2235 1 24.5784 1.31382 0.935537
1988 1 25.4645 0.867309 0.714828
1987 1 26.396 0.670564 0.980175
1936 1 26.8386 1.06345 0.13813
2496 1 27.6538 0.697139 0.649448
2495 1 28.2165 0.087288 1.22455
2246 1 29.4209 1.21432 0.5292
2245 1 28.7313 1.38801 1.17267
2265 1 29.1713 0.211125 0.558599
91 1 0.677452 2.08088 0.203827
12 1 2.13241 1.56499 0.0161746
14 1 1.51265 1.6919 1.06149
13 1 1.9455 2.55602 1.03936
477 1 2.52898 2.60166 0.228985
96 1 3.0963 2.51444 1.15772
330 1 4.28556 2.26727 1.14755
95 1 3.01623 1.6308 0.763675
78 1 4.09944 2.03582 0.18992
475 1 5.61278 2.28542 1.07241
466 1 5.09486 2.71118 0.265629
476 1 6.02962 1.92196 0.324387
651 1 6.75267 2.54081 0.796357
718 1 8.3922 2.69388 0.525547
731 1 8.00569 1.65143 1.06639
717 1 9.00554 2.16159 1.06225
733 1 9.68829 2.41101 0.0766313
714 1 8.80169 1.80531 0.0354551
800 1 10.7294 2.71237 0.566941
664 1 10.5827 1.76046 1.19598
969 1 12.5519 2.03461 0.63682
970 1 11.6128 2.089 0.699123
647 1 14.0331 1.9637 0.708412
1281 1 14.9661 1.43631 0.516221
1307 1 16.4236 1.92127 0.176055
1297 1 16.731 1.67253 1.26866
1308 1 15.7959 2.14199 0.877399
1461 1 16.7372 2.64578 0.872427
1387 1 18.5402 1.75157 0.582153
1388 1 17.7213 2.21315 0.784669
1384 1 19.1819 2.607 1.14467
1621 1 20.2336 1.81109 0.629645
1616 1 21.1963 2.48328 0.963709
1703 1 21.6035 1.93275 0.0676201
1704 1 22.2583 1.52837 0.656227
2010 1 23.4776 1.44279 1.22181
1678 1 24.0406 2.34429 0.781885
1934 1 22.9797 2.57725 0.679224
1677 1 24.6691 2.65207 1.37593
2007 1 25.6932 1.96405 0.773718
2023 1 24.8397 2.54431 0.120945
2253 1 26.6679 2.38629 0.324989
2254 1 27.0854 1.7419 0.915388
2248 1 28.0285 2.30889 0.677541
92 1 29.9238 2.65287 0.255721
16 1 29.734 2.04937 1.09815
2244 1 29.0769 2.14596 0.341641
2411 1 0.244093 4.11259 0.0813262
2395 1 1.23603 4.08695 0.110433
2397 1 0.855094 2.98649 0.782189
163 1 2.048 3.43629 0.467741
98 1 2.28779 3.4768 1.42156
415 1 3.13387 3.59927 0.363196
393 1 3.69835 3.37024 1.34097
394 1 4.00185 3.02032 0.445131
329 1 4.71668 3.01666 1.40479
544 1 4.97859 3.66575 0.456172
459 1 5.88878 4.2631 0.553609
417 1 6.01354 3.69308 1.38425
467 1 6.23032 3.32013 0.474768
722 1 7.76249 3.8237 1.35271
797 1 8.40077 4.17101 0.53141
734 1 9.70203 3.01372 0.913534
793 1 8.82163 3.42552 1.05111
859 1 9.54902 4.07696 0.166984
799 1 10.8381 3.65605 0.723116
1057 1 12.2987 3.98508 0.55662
740 1 12.075 3.2064 1.34699
1043 1 13.1929 2.9815 0.797226
1053 1 13.9468 3.59418 1.29111
1062 1 13.0552 4.02084 1.36053
1048 1 13.5244 4.17605 0.423222
1052 1 14.4839 2.91985 0.587162
1065 1 15.1611 4.0065 1.14723
1450 1 15.5747 3.11037 1.01501
1462 1 16.4196 3.24046 0.167882
1776 1 17.0745 3.90972 0.497551
1396 1 18.1561 3.17849 1.04504
1293 1 19.3956 2.93526 0.184696
1708 1 19.5245 3.8151 0.865075
1707 1 20.2984 3.22501 0.878495
1933 1 22.2393 3.04081 0.451279
1762 1 22.8013 4.05269 0.549382
1780 1 21.7067 3.54248 1.27461
2006 1 24.1359 3.35664 0.729943
2024 1 25.5933 2.94088 0.625721
2011 1 25.0174 4.01356 0.550822
2410 1 26.3431 4.07694 0.217528
2346 1 26.5591 3.28713 0.935405
2018 1 26.0311 4.2525 1.20956
2313 1 27.4623 3.20775 0.538457
2409 1 27.261 4.26686 0.480948
2314 1 28.1039 3.58146 0.0623796
2345 1 27.2344 3.69913 1.42654
2318 1 29.2125 4.15804 0.122081
2317 1 29.0215 3.59102 0.834876
2398 1 29.9609 3.08196 1.12394
2331 1 29.9618 4.11784 1.24296
2412 1 0.459472 5.02119 0.213377
88 1 1.168 5.00484 1.06344
164 1 2.38923 4.32138 0.70007
84 1 2.05741 5.4482 0.375957
156 1 3.18929 5.44886 0.549161
155 1 3.41967 4.53338 0.829917
481 1 4.27829 5.46443 0.494057
401 1 5.19831 4.76291 1.38316
628 1 5.46433 5.34849 0.422871
486 1 4.32882 4.36343 0.0722679
721 1 7.05217 4.36766 1.05294
549 1 6.52656 5.31456 1.32039
550 1 6.79408 5.44495 0.429602
460 1 6.69655 4.37391 0.122987
473 1 7.85376 5.06172 0.614133
867 1 8.81944 5.63849 1.21908
796 1 8.83958 5.00849 0.181382
802 1 11.2725 5.64564 0.153316
1186 1 10.6486 5.45414 0.996234
860 1 10.0821 4.80955 0.435317
1200 1 12.77 4.8561 0.349646
1221 1 11.7622 5.11488 0.877931
1114 1 13.7508 5.19446 1.0491
992 1 14.8625 5.05871 0.84774
1438 1 14.5751 4.36308 0.175927
1372 1 16.7503 4.93379 0.202173
991 1 15.8391 4.84353 0.835822
1452 1 16.9453 5.47905 1.1489
1451 1 17.0021 4.50104 1.24466
1519 1 17.5252 5.53356 0.212147
1775 1 17.8977 4.34025 0.840225
1380 1 18.9808 5.45761 0.407008
1698 1 19.8677 4.94739 1.10478
1697 1 20.1973 4.58379 0.330042
1691 1 21.1922 4.3663 1.01585
1692 1 20.906 5.25461 0.961244
2013 1 22.2359 4.60997 1.3061
1767 1 22.4351 5.65108 1.05522
2005 1 23.9314 4.31817 0.622741
2106 1 23.1736 4.99488 1.09733
2104 1 24.1639 4.9951 1.32555
2017 1 25.2275 4.74929 1.32493
2002 1 24.9453 5.19778 0.390779
2422 1 26.0243 5.28155 0.583811
2328 1 28.2547 4.37581 1.17544
2460 1 27.3432 4.76796 1.30669
2392 1 27.6387 5.43861 0.011453
2391 1 28.45 5.18617 0.395345
2332 1 29.6522 4.98197 0.880198
87 1 0.734329 5.82368 1.29223
2403 1 0.294975 6.25072 0.377124
152 1 0.727491 7.1043 0.463328
171 1 1.45994 6.31658 0.580538
175 1 2.46323 5.9852 1.14627
172 1 2.10658 6.90453 0.361562
176 1 3.11285 6.58293 0.666847
482 1 4.3155 6.41751 0.423368
487 1 5.39241 6.8319 0.647182
488 1 5.92981 6.14124 0.956042
563 1 6.75259 6.92434 0.464517
810 1 7.62667 6.48302 0.684725
868 1 8.62172 6.25429 0.482759
863 1 9.57652 5.82942 0.420707
806 1 9.23407 6.89259 1.25132
553 1 9.39222 6.92866 0.272496
864 1 10.2844 6.41686 0.698458
1123 1 10.9808 6.94884 1.16606
955 1 11.2903 6.81208 0.0582548
801 1 11.4613 6.15238 0.997838
956 1 12.2423 6.51864 0.272697
1143 1 13.0816 6.51451 1.1971
1529 1 13.9897 6.93647 0.589073
1113 1 14.1884 6.00367 1.25306
1119 1 14.6376 5.8831 0.0121211
1443 1 15.5128 5.93959 0.794556
1218 1 15.182 6.74932 0.380686
1131 1 14.9245 7.02713 1.33979
1444 1 16.3241 6.46541 0.813372
1371 1 16.5923 5.86896 0.00124241
1442 1 17.3896 6.58232 1.17378
1441 1 18.2333 6.18842 0.775018
1829 1 17.4826 6.76026 0.143723
1777 1 19.7256 6.00229 1.09235
1837 1 19.8659 7.07524 0.451058
1513 1 19.0895 6.46651 0.0283555
1840 1 21.2978 6.03299 1.39866
1839 1 21.2274 6.99659 1.14329
1764 1 20.5162 5.98595 0.39128
1841 1 21.6328 6.61761 0.280728
2105 1 23.4857 5.75111 0.45732
1849 1 23.0952 6.76323 0.870987
2096 1 24.2406 6.13289 1.24361
2181 1 25.0991 6.56426 0.720463
2415 1 27.0737 6.21827 0.676198
2185 1 25.9499 7.11742 0.195422
2186 1 26.1096 6.6477 1.00286
2401 1 28.0156 5.77239 1.30759
2423 1 27.6914 7.02373 0.759855
2493 1 28.1381 6.33246 0.0480876
177 1 28.746 6.61519 0.795408
2473 1 29.4165 5.96864 0.922978
2474 1 29.0977 6.04195 0.0190217
178 1 29.5733 7.01169 0.530682
151 1 1.23231 7.42227 1.2124
2504 1 0.708497 8.15765 0.501593
242 1 1.40601 8.4348 1.16918
246 1 2.21031 7.87342 0.822078
634 1 3.12287 8.44044 0.40536
633 1 3.25422 7.56071 0.898494
257 1 4.44949 7.32871 0.803938
258 1 4.28661 8.05211 1.42412
638 1 5.22064 8.25499 0.513505
398 1 6.03733 7.68084 0.0778177
381 1 6.92645 8.30025 0.176676
564 1 6.61207 7.7201 0.914113
958 1 8.37371 7.2508 0.78813
957 1 7.63955 7.54835 0.148706
657 1 7.81256 8.14066 0.929425
809 1 7.44798 7.24486 1.26196
902 1 9.38805 7.83668 1.09944
894 1 8.90141 8.20901 0.0631655
952 1 10.5179 7.99536 1.23091
1275 1 10.2358 7.80453 0.0537021
1280 1 11.5628 7.71177 0.639793
1279 1 11.5348 8.55893 1.07525
1354 1 13.0256 7.87271 0.737393
1353 1 13.9241 8.23598 0.846515
1217 1 14.8452 7.63317 0.442797
1232 1 14.8636 8.28901 1.33527
1521 1 15.8638 7.5493 1.09577
1598 1 16.7064 7.32776 0.348993
1525 1 16.5638 8.30301 1.06701
1585 1 15.8058 8.04536 0.0344021
1447 1 18.3925 7.37538 0.280266
1448 1 18.1286 7.28777 1.23779
1599 1 18.4719 8.18904 1.34457
1528 1 17.8709 8.25039 0.429111
1600 1 19.1828 8.03571 0.740358
1913 1 20.4451 7.81617 1.14471
1917 1 20.1017 8.20269 0.224061
1838 1 20.7879 7.21415 0.127751
1766 1 21.5587 8.23849 1.09642
1765 1 21.9981 8.43971 0.238578
1850 1 22.9289 7.5513 1.33369
2240 1 23.686 7.52515 0.127256
2159 1 23.6339 8.46204 0.645688
2160 1 24.3421 7.85739 0.870421
2163 1 25.1365 8.06327 0.164002
2315 1 25.8121 7.7836 1.23027
2489 1 26.4783 8.0104 0.590036
2424 1 26.9055 7.28067 1.25758
272 1 27.5958 8.01165 1.03278
267 1 28.394 8.00353 0.214618
319 1 27.2827 8.16594 0.00125054
268 1 28.9945 7.81163 1.03401
2503 1 29.9907 8.10141 1.07359
2417 1 29.55 8.11902 0.159967
240 1 0.0295444 9.88971 1.18265
241 1 0.616462 8.99122 1.05901
248 1 0.59796 9.32714 0.0350132
9 1 2.67531 9.62894 0.502343
245 1 2.29249 8.76394 1.08687
322 1 1.57374 9.50562 0.816347
321 1 1.50656 8.79799 0.215471
10 1 3.23611 9.27855 1.1725
462 1 5.6352 9.23487 0.999502
391 1 4.51619 9.09359 0.360495
573 1 4.35816 9.34205 1.36362
382 1 6.6099 9.09707 0.630609
891 1 7.52048 9.21592 1.06777
658 1 8.38166 8.7878 1.41346
650 1 8.5148 9.63279 0.721287
892 1 7.91869 8.89455 0.220921
649 1 9.22012 9.05264 0.435687
883 1 9.83617 9.77632 1.08981
1210 1 10.9838 9.74091 0.724635
951 1 10.4061 8.88465 0.985688
1203 1 12.8538 8.8191 0.881911
1259 1 12.2477 9.73712 1.0435
1260 1 12.2289 9.42505 0.154397
1271 1 11.435 8.6245 0.00744192
1204 1 13.6089 9.24403 1.33534
1589 1 13.7218 9.25543 0.056152
1347 1 15.3951 9.11101 0.659643
1348 1 14.6712 8.67398 0.188742
1212 1 14.489 9.48554 0.767329
1524 1 16.2902 9.94762 0.353018
1291 1 16.9809 9.61236 1.39138
1527 1 17.628 9.12672 0.184609
1844 1 19.8364 9.46251 0.415508
1545 1 18.7899 9.03922 0.378214
1847 1 19.063 9.44691 1.32229
1918 1 20.8534 8.85554 0.303456
1914 1 20.1014 8.71442 1.07694
2234 1 21.8457 9.29857 1.14887
2233 1 22.6515 9.29973 0.484588
1857 1 22.8493 9.83743 1.3818
1930 1 23.7293 9.44366 0.734098
1942 1 24.9717 9.78643 0.0428837
2164 1 24.5442 8.8288 0.279486
2316 1 25.6192 8.72709 1.06754
2319 1 26.9049 9.95814 0.418349
1927 1 26.7424 9.01372 0.575812
1941 1 25.7296 9.71866 0.666153
271 1 27.9561 8.92926 0.788357
2266 1 28.3567 9.91983 0.162935
239 1 29.7057 9.11098 0.833549
256 1 0.677253 0.461589 1.71929
119 1 0.692168 1.33647 2.10438
120 1 1.65467 1.08911 2.29835
19 1 1.63719 0.152515 1.70742
574 1 3.86666 0.120996 1.75447
266 1 3.00238 0.517262 2.35276
399 1 5.07251 0.022669 1.83753
412 1 5.63534 1.03903 2.45162
346 1 4.78366 1.05167 1.83743
400 1 6.00268 0.327812 1.55452
337 1 6.83307 0.927904 2.13348
578 1 6.29756 0.240786 2.61889
646 1 8.37814 0.75802 1.56093
568 1 7.72893 0.417418 2.39268
900 1 8.89918 0.372347 2.55972
741 1 9.74651 0.510295 2.12365
645 1 9.09497 1.37398 1.74889
661 1 11.2296 1.22146 1.84352
889 1 10.6861 0.264101 1.55697
655 1 10.625 0.595053 2.59204
987 1 11.5627 0.356806 2.31974
976 1 12.5403 0.763322 2.00593
967 1 13.9598 0.247218 2.31956
1288 1 14.9345 0.5788 1.92107
1287 1 15.7351 1.1157 1.69485
1555 1 16.5995 0.979613 2.32306
1565 1 16.9095 0.0372189 2.42815
1292 1 16.2858 0.184809 1.56467
1566 1 17.5123 0.33297 1.77033
1607 1 19.5012 0.925596 2.16397
1608 1 18.5772 1.19676 1.90442
1626 1 20.119 0.201607 1.65022
1611 1 21.1537 0.922463 2.03528
1622 1 20.3866 1.33507 1.45476
1882 1 20.3518 0.378226 2.76164
1858 1 22.2531 0.425215 1.83858
2172 1 23.2403 0.672362 2.01603
2171 1 23.9396 0.0579653 2.20041
2184 1 23.0404 0.0351176 2.84339
2161 1 24.5508 0.733382 1.80603
2019 1 25.6206 0.227609 1.82656
2020 1 25.3172 0.642289 2.60776
2261 1 26.7391 1.30296 1.82568
2262 1 25.8376 1.19987 1.64496
2271 1 26.9818 0.0946763 2.40039
2272 1 26.1069 0.00578153 2.82375
2333 1 26.4495 0.912318 2.76389
2349 1 27.7528 1.34077 1.5074
2350 1 27.8727 0.80727 2.32609
255 1 29.9035 0.960874 1.52553
288 1 29.1274 0.844677 2.32311
28 1 0.717588 2.27759 1.59888
2260 1 2.74564 1.93367 1.98938
37 1 1.76176 2.1494 2.29709
2259 1 3.58354 1.5885 1.77422
413 1 3.68093 2.52019 2.06969
345 1 5.00283 1.9164 1.80809
411 1 6.01027 1.45514 1.66718
333 1 5.82902 2.57737 2.00075
334 1 6.44261 2.53202 2.68659
652 1 6.93062 2.03835 1.56746
732 1 8.01064 2.50908 1.45081
816 1 7.66289 1.65409 2.32157
815 1 7.5589 2.59965 2.39591
659 1 8.58125 2.70551 2.38286
730 1 9.51525 2.42577 2.63524
779 1 11.3221 2.419 1.68097
729 1 10.1209 2.76779 1.94872
780 1 10.9219 2.05719 2.49991
663 1 10.0718 1.66018 2.01603
739 1 12.4728 2.34683 1.62054
908 1 12.1759 1.74911 2.56733
977 1 11.8135 2.72477 2.60306
648 1 13.7111 2.29062 1.52735
989 1 13.2781 1.77129 2.38104
990 1 14.1743 1.68065 2.75643
1067 1 12.8709 2.66054 2.78263
1050 1 13.8427 2.68953 2.44284
1290 1 14.5906 1.7843 1.5937
972 1 15.1944 1.62897 2.49826
971 1 15.3918 2.5082 2.57939
1299 1 16.2431 2.01048 2.34205
1455 1 16.9414 2.82396 1.92889
1300 1 16.9211 2.4542 2.8246
1556 1 17.3008 1.72161 2.07675
1395 1 18.0818 2.53174 1.77518
1306 1 19.0214 2.03697 2.43005
1632 1 20.0757 1.82315 2.42539
1706 1 21.0513 1.81753 2.84037
1615 1 21.0578 2.18941 1.85152
1303 1 20.2141 2.5058 1.67868
1374 1 22.0381 1.51264 2.46035
1937 1 21.911 2.54602 2.34397
1938 1 22.4181 2.29866 1.5826
1373 1 22.9686 1.63101 2.16871
1629 1 23.4684 2.68971 1.59086
2162 1 24.7661 1.59725 2.08677
1932 1 25.2709 2.48321 2.22109
2015 1 26.2268 2.28299 1.60217
2353 1 26.2023 2.69551 2.62842
2339 1 25.7223 1.73987 2.70988
2016 1 27.1617 2.5193 1.65541
2247 1 28.1531 2.25534 1.67335
2288 1 27.3352 1.83324 2.49099
15 1 29.3841 1.82485 1.96144
2342 1 28.7734 2.69768 2.38978
2341 1 29.0334 2.68766 1.43578
27 1 1.26458 3.02054 1.77535
2432 1 0.346303 4.12203 2.47035
105 1 2.84941 3.24395 2.57503
106 1 2.03378 3.7604 2.64857
97 1 2.97645 4.08098 1.79364
498 1 4.171 3.52458 2.35111
484 1 5.20619 2.86145 2.81131
402 1 5.06841 3.92903 1.806
332 1 5.93869 3.98861 2.85146
418 1 6.69889 3.06652 1.68748
746 1 7.9619 3.45496 2.55044
794 1 9.28042 4.225 1.48268
817 1 8.64201 4.22649 2.80364
660 1 9.29424 3.32744 2.09257
818 1 9.58916 4.25091 2.79504
723 1 10.265 3.76289 2.01794
744 1 10.8908 3.20365 2.57357
725 1 11.3248 3.9834 2.15775
1073 1 12.752 4.2517 2.31106
1049 1 13.997 3.62885 2.53958
1061 1 13.1484 3.21169 1.89971
1054 1 14.6928 3.15454 1.57124
1066 1 15.3353 3.76297 2.06027
1449 1 16.2564 3.55336 1.5012
1375 1 16.2844 3.35666 2.49327
1456 1 17.3345 3.58702 1.54803
1479 1 17.1495 4.16996 2.38489
1399 1 17.9895 3.3812 2.47115
1383 1 19.435 3.16106 1.88119
1459 1 19.4733 4.20347 1.81126
1386 1 19.3994 3.69558 2.83065
1460 1 20.3308 3.97027 1.52364
1304 1 20.5603 3.16225 2.3327
1874 1 22.8043 2.9543 2.74289
1779 1 21.4379 4.06005 2.03875
2034 1 22.8496 3.66407 1.87192
2033 1 22.27 3.84456 2.63007
2098 1 23.8046 3.89063 1.62581
2097 1 23.5822 3.99502 2.54389
1630 1 24.0717 2.94223 2.34681
2021 1 25.5479 3.37393 1.64312
2099 1 24.6989 4.07895 2.01378
2022 1 26.0024 3.94746 2.27196
2336 1 26.9573 3.7785 2.45862
2326 1 28.2827 3.47483 1.59406
2051 1 27.6727 2.96327 2.36274
2325 1 28.2211 3.77369 2.47859
2430 1 29.697 3.25702 2.10432
2429 1 29.1744 4.09648 2.10334
100 1 1.01454 4.86332 2.0894
99 1 0.113052 5.0553 1.86463
165 1 2.2466 4.78766 2.4951
166 1 2.3899 5.09652 1.56432
479 1 3.90828 4.71476 2.75052
507 1 4.12703 4.84461 1.75161
110 1 3.11004 5.41978 2.46289
508 1 4.67971 5.4351 2.25399
422 1 4.83027 4.40318 2.65644
635 1 5.72844 5.38206 2.06831
430 1 6.77553 5.19087 2.3445
636 1 6.02243 4.50836 1.94152
727 1 7.55284 5.34428 1.49929
429 1 7.42656 4.43208 2.22026
728 1 8.37703 4.81638 1.52534
807 1 9.85269 5.06984 1.83127
1136 1 9.13565 5.32158 2.65353
724 1 10.5835 4.45956 1.44588
1185 1 11.1888 5.52715 1.79282
808 1 10.5064 4.78393 2.46627
726 1 11.6572 4.69085 2.59616
1222 1 12.1575 5.13042 1.74404
1197 1 14.025 4.7874 2.65834
1198 1 14.246 4.63925 1.75521
1138 1 12.9105 5.64396 2.71171
1465 1 15.0679 5.27637 1.97055
1471 1 15.9532 5.61809 1.59313
1472 1 16.6357 5.29849 2.20852
1457 1 15.7871 4.85088 2.57642
1533 1 17.866 5.27138 1.52911
1534 1 17.5691 5.09564 2.32576
1470 1 18.5001 5.69335 2.63615
1469 1 19.1203 5.41572 1.9758
1728 1 18.6048 4.50501 2.16625
1711 1 21.1975 4.96777 1.85798
1393 1 20.342 4.72435 2.37239
2014 1 22.8032 4.65904 2.05994
1712 1 21.9892 5.39169 2.16842
2103 1 23.8653 4.99458 2.27503
2110 1 24.9876 5.07327 2.33363
2459 1 27.0628 5.25144 2.03398
2090 1 26.1105 5.709 1.55764
2109 1 25.9459 5.02483 2.48528
2327 1 28.1572 4.78877 2.00624
2402 1 28.8418 5.66518 1.87847
186 1 29.4131 4.84944 2.75852
170 1 0.446583 6.84106 1.47358
2425 1 1.28372 5.88089 2.19853
169 1 0.326898 6.26262 2.23364
2426 1 1.64397 6.53594 1.58181
168 1 2.60714 7.1259 1.6313
263 1 2.1878 6.31648 2.63398
182 1 3.71578 6.8594 1.48345
109 1 2.99161 6.24867 1.96109
181 1 3.98088 5.96206 1.42941
492 1 4.17378 6.50762 2.38708
493 1 5.24641 6.25839 1.73349
494 1 5.17461 6.33738 2.70673
491 1 4.73891 7.12248 1.86754
495 1 6.19721 6.97515 2.63476
496 1 6.43717 6.05525 2.59827
813 1 6.89829 6.3666 1.44735
874 1 8.39054 5.79926 2.14503
814 1 7.48333 6.27319 2.20146
873 1 8.23282 6.68705 1.70406
805 1 9.24085 6.24018 1.97349
862 1 10.3237 6.39933 1.81759
1278 1 11.3185 6.39729 2.14444
861 1 10.2617 6.85383 2.69897
1128 1 12.4379 6.67 2.09479
823 1 11.908 5.91785 2.80719
1144 1 13.2868 5.71637 1.76899
1127 1 13.3941 6.63581 2.33062
1466 1 15.1652 6.2372 1.98734
1215 1 14.391 6.96314 2.62316
1147 1 14.3143 5.82038 2.5954
1141 1 16.0543 6.634 2.12793
1482 1 17.1252 6.18944 2.39312
1772 1 17.4777 7.12908 2.12794
1771 1 18.0694 6.40388 1.8816
1484 1 19.0772 6.54137 1.83565
1770 1 19.7224 6.1308 2.54199
1483 1 18.9217 6.75472 2.76041
1769 1 20.5284 6.65829 2.58744
1778 1 20.3774 5.72443 1.76053
2032 1 22.7151 6.52741 2.44007
1784 1 22.1928 6.67988 1.49354
1783 1 21.6075 6.6957 2.27517
1768 1 23.1426 5.78944 1.74697
2166 1 23.5055 7.11531 2.57695
2165 1 23.9255 7.12452 1.70688
2089 1 25.4939 5.99094 2.26536
2095 1 24.3413 6.14958 2.27711
2420 1 26.2755 6.79771 2.01422
2419 1 27.1251 6.32647 1.82359
188 1 28.3696 6.79513 2.0898
2500 1 27.5612 6.85597 2.78665
2357 1 27.7765 5.84888 2.47712
187 1 29.2245 6.9144 1.66164
208 1 29.3967 5.94375 2.77057
251 1 1.24076 7.43993 2.3262
253 1 0.378139 7.91904 2.78569
259 1 0.570161 8.38162 1.85186
252 1 1.95289 7.86296 1.83792
264 1 2.36488 7.2151 2.64764
167 1 2.95115 7.90955 2.04849
576 1 3.92597 7.63919 2.51216
637 1 5.28549 8.37906 1.55244
489 1 5.69579 7.43778 1.64513
570 1 4.95615 7.66556 2.7745
579 1 6.51172 8.48369 1.48746
580 1 6.91231 7.76988 1.96818
490 1 5.85718 8.02979 2.40018
555 1 8.27314 7.77289 1.7933
820 1 7.62915 7.41368 2.63052
501 1 8.1862 8.20312 2.84542
556 1 8.83201 7.24844 2.44809
880 1 9.73747 7.42849 2.08314
879 1 10.4288 7.9394 2.46058
1124 1 11.2164 7.50741 1.84673
887 1 11.0765 8.50765 2.05441
1202 1 12.185 7.80566 1.67035
1270 1 11.6933 8.00918 2.73772
1151 1 12.7982 8.49689 2.8424
1201 1 13.1228 7.6529 1.85002
1132 1 14.0873 7.41846 1.6066
1126 1 13.9283 8.52296 1.96761
1231 1 14.9842 8.11867 2.28485
1522 1 16.7073 7.25532 1.45197
1360 1 15.9577 7.77347 2.10476
1453 1 16.923 7.91492 2.68
1526 1 17.3924 7.94568 1.49936
1551 1 18.0066 8.39738 2.63522
1532 1 19.8359 7.51811 2.07604
1552 1 18.6044 7.62826 2.33352
1531 1 20.1171 8.39118 2.36172
1854 1 20.9117 7.50701 2.05317
2173 1 21.9888 7.97659 2.10922
2174 1 22.8525 8.12144 2.37399
2170 1 24.1051 8.06693 1.95522
2101 1 25.0497 7.21269 2.81966
2501 1 25.1491 7.2044 1.79242
2502 1 25.0839 8.18134 1.93722
2258 1 26.8993 8.33211 1.88717
2257 1 26.0827 8.00574 2.26868
2510 1 27.7125 7.66906 2.10595
2434 1 27.1453 8.07831 2.84633
254 1 29.9074 7.53968 2.04297
2509 1 28.672 7.86672 2.15584
2356 1 29.0573 7.159 2.79276
22 1 0.889125 9.72847 2.77431
20 1 1.21892 9.37155 1.88158
23 1 2.19759 8.84178 2.02883
265 1 2.59591 9.67443 2.14285
17 1 3.47607 8.83561 2.1617
18 1 3.86009 9.55748 2.61581
572 1 4.61214 8.78957 2.31441
336 1 6.00056 9.36718 2.03357
335 1 6.89853 9.74227 1.8886
326 1 6.74398 8.59875 2.51583
325 1 7.58239 8.68803 2.04683
567 1 8.03049 9.59367 1.96264
884 1 8.98173 9.92013 1.60896
901 1 9.51867 8.70979 1.43334
896 1 9.02418 9.34042 2.54017
888 1 11.308 9.44369 1.73737
885 1 10.2244 9.36276 2.21421
1540 1 11.9799 9.42957 2.46984
1539 1 12.3335 8.86648 1.75207
975 1 12.9954 9.94829 1.86467
1125 1 13.5584 9.2823 2.38484
1318 1 15.0582 9.99504 2.70882
1538 1 14.6154 9.3782 1.89631
1537 1 14.4701 8.97607 2.76528
1359 1 15.7829 8.62181 1.67413
1865 1 17.0765 8.92393 2.29179
1569 1 15.9146 9.40228 2.35867
1866 1 17.8563 9.05658 1.732
1870 1 18.4344 9.85621 2.31479
1869 1 19.4123 9.70788 2.41756
1848 1 19.0217 8.82361 2.006
2179 1 21.1588 8.73298 1.86504
1625 1 20.2011 9.27395 1.91609
1919 1 20.6923 9.23347 2.83298
1920 1 21.2285 9.78858 2.29331
2180 1 21.5184 8.75338 2.73634
2167 1 22.7612 8.66472 1.46355
2168 1 22.2828 9.22441 2.09101
1862 1 22.0909 9.94726 2.83793
2188 1 23.6291 9.16804 1.72444
2178 1 24.0204 8.90311 2.74447
2187 1 24.5596 9.1959 1.57283
1925 1 25.0101 9.44621 2.55262
2263 1 26.5295 9.68558 1.47876
2264 1 25.827 9.25174 2.01905
2506 1 27.0387 9.0279 2.56608
2507 1 27.958 8.71414 2.06484
2508 1 27.465 9.45102 1.65312
289 1 28.2338 9.84596 2.22876
21 1 29.9227 9.85027 2.69796
287 1 29.2403 9.98164 1.86735
260 1 29.97 9.09747 1.91434
2251 1 29.0019 9.02067 2.35863
2252 1 28.9021 8.8266 1.46461
303 1 0.982075 0.267716 3.89476
121 1 1.39836 1.31747 3.90132
304 1 0.637936 0.827289 3.14827
31 1 2.17444 0.253705 3.03805
32 1 2.37037 1.1942 3.05785
342 1 2.53095 0.494387 4.1227
93 1 4.22049 1.19906 3.72889
341 1 3.18369 0.576819 3.42698
29 1 4.56607 0.471837 2.9748
354 1 5.45647 0.951741 3.55825
262 1 4.58357 0.00552742 3.98198
338 1 6.72042 1.34562 3.01311
370 1 6.44763 0.553412 3.50865
369 1 7.08764 1.016 4.06129
339 1 8.57065 1.3073 3.12931
899 1 8.24794 0.0582056 3.13305
616 1 7.88144 0.158308 4.10208
340 1 8.36708 1.28609 4.10378
710 1 9.29625 0.680875 3.7547
742 1 9.81094 0.0220234 2.9461
709 1 9.69575 1.14982 2.9777
656 1 10.4432 0.663857 3.50723
988 1 12.2119 0.459851 2.9655
907 1 11.4349 1.28002 2.93305
904 1 11.4872 0.431324 3.62771
994 1 12.4449 1.33266 3.55019
1205 1 12.5138 0.336653 4.15758
993 1 11.5778 1.34975 4.10603
1536 1 13.3716 0.966904 4.07251
1535 1 13.4347 0.880112 3.14662
968 1 14.4944 0.705743 2.98996
1249 1 15.3573 0.979217 3.5459
1317 1 15.9798 0.261372 2.90557
1000 1 15.8911 0.117684 3.999
1007 1 16.6247 0.967756 3.75746
1313 1 17.6279 0.588973 3.06574
1314 1 18.5465 0.763226 2.87396
1391 1 17.9145 1.09222 4.03455
1562 1 17.4784 0.0406788 4.13092
1310 1 19.902 1.1414 3.45453
1309 1 19.307 0.371735 3.4915
1640 1 19.0915 1.10964 4.21261
1633 1 20.5636 0.238201 3.78036
1718 1 20.8691 1.23693 3.84488
1881 1 21.227 0.68935 3.04392
1877 1 22.6087 0.887485 3.24878
1878 1 21.9145 0.878976 3.94986
2183 1 23.7154 0.508491 3.3245
1956 1 23.859 0.870709 4.27252
2176 1 24.4966 1.25196 3.14684
1960 1 25.4296 0.348306 3.67243
1959 1 24.7329 0.082302 4.20202
2334 1 26.0956 1.07347 3.6724
2273 1 26.6513 0.178336 3.99215
2498 1 27.5677 0.54066 3.32264
2497 1 28.5421 0.78535 3.36822
2267 1 29.667 0.644382 3.41086
2344 1 0.812608 1.97285 3.09244
2343 1 0.802963 2.44141 3.92188
41 1 0.0770663 1.4644 3.91592
445 1 2.46745 1.56167 4.14906
38 1 1.81348 2.33776 3.2481
446 1 2.56844 2.51535 4.25996
102 1 2.85853 2.26163 3.28512
101 1 3.46069 1.61242 3.0875
435 1 3.80589 2.14504 4.05156
414 1 3.91445 2.74345 3.0102
94 1 4.58724 1.51713 2.86877
353 1 5.68254 1.83871 3.2925
409 1 4.79207 2.27673 3.63804
350 1 5.66798 2.57176 4.24806
427 1 6.69732 2.11394 3.99063
344 1 7.64589 1.75163 3.44892
666 1 8.59032 2.28255 3.83686
644 1 9.42084 2.82438 3.91779
351 1 9.70089 1.65748 3.9103
743 1 10.3348 2.80707 3.21036
352 1 10.5859 1.84289 3.56893
978 1 11.5701 2.37816 3.502
1002 1 14.054 2.02039 4.08181
1001 1 13.2497 2.04449 3.56273
985 1 15.0137 2.09739 3.43995
1250 1 14.8678 1.46682 4.27677
986 1 15.9773 2.01975 3.35648
1407 1 17.0613 2.64102 3.93708
1008 1 16.0184 1.58304 4.19183
997 1 15.8681 2.79985 4.27377
979 1 17.3022 1.5653 3.17985
1408 1 17.1717 1.79258 4.25905
980 1 18.0747 2.11452 2.93001
1389 1 18.1682 2.35453 4.01468
1305 1 19.0202 1.97337 3.40695
1631 1 20.0646 2.26931 3.33513
1709 1 21.1243 2.71904 3.77061
1671 1 22.8008 2.22849 3.78829
1705 1 21.745 1.90777 3.5731
1672 1 23.3167 1.70623 3.13759
1620 1 23.7867 2.29969 3.9778
2175 1 24.3046 2.21515 3.03967
1619 1 24.7194 1.98599 3.92094
2340 1 25.5282 2.38062 3.44628
2361 1 26.8551 1.71977 3.65588
2287 1 27.8951 1.68817 3.26581
2052 1 27.2625 2.5408 3.14952
2278 1 28.8877 1.74041 4.00143
2268 1 29.8633 1.56689 2.95058
2277 1 28.8877 1.95101 3.0522
2519 1 29.7481 2.55216 2.90742
2520 1 29.6645 2.50416 3.89699
195 1 0.609521 3.08354 2.99592
2359 1 0.144249 3.6598 4.11311
196 1 0.936549 3.91698 3.42933
25 1 1.58085 3.13187 4.22325
26 1 2.04726 3.71506 3.59038
480 1 3.0263 4.23907 2.94106
497 1 4.03378 3.70744 3.29499
436 1 3.90134 3.11247 4.21511
434 1 3.3724 4.09416 4.06708
433 1 3.00177 3.32219 3.70408
410 1 4.90733 3.18389 3.85235
408 1 5.2887 4.21729 3.67209
407 1 4.48605 4.16241 4.23561
483 1 5.89859 3.10573 3.41717
425 1 6.8301 3.51588 2.92365
347 1 6.57342 4.16656 4.21337
426 1 6.82009 3.15488 3.81891
424 1 7.53087 4.15751 3.22809
745 1 7.9283 3.08949 3.4601
755 1 8.38953 4.15198 3.8173
756 1 7.72132 3.71127 4.26807
643 1 8.91007 3.31918 3.20176
747 1 9.93826 3.80888 3.70418
736 1 11.3891 3.49682 3.63202
1068 1 12.5829 2.91578 3.61036
1074 1 12.1337 3.83667 2.94627
1122 1 13.8863 4.16188 3.60326
1121 1 13.1718 3.76393 3.14961
984 1 13.7674 2.9789 3.74171
1076 1 13.0994 3.78951 4.2052
1077 1 15.2833 3.37636 3.02839
1078 1 14.7141 3.08836 3.75623
1382 1 15.4748 3.85128 4.00584
1376 1 16.2539 3.0622 3.38669
1085 1 16.4451 4.11602 3.72158
1086 1 17.1906 3.61733 3.38748
1419 1 18.2702 4.15423 4.25318
1400 1 18.6253 2.9678 2.94828
1390 1 18.8753 3.10214 4.05272
1385 1 19.5026 4.10481 3.7385
1312 1 20.0735 3.21411 3.85282
1710 1 21.2914 3.32445 3.05595
1798 1 21.0881 4.11737 3.78375
1394 1 20.3649 4.03557 3.05435
1873 1 22.1202 2.89108 3.40875
1797 1 22.0374 3.88569 3.77451
1943 1 23.7608 3.13913 3.32392
1944 1 23.0422 3.78684 3.39956
1628 1 24.251 3.72456 3.98736
1931 1 25.0303 3.1092 2.93025
2100 1 24.7165 4.1756 3.02079
2039 1 25.3647 3.86091 4.12023
2354 1 26.1078 3.20516 3.47184
2124 1 26.562 3.81513 4.23154
2364 1 27.5523 3.41281 3.77695
2363 1 28.2691 3.11874 3.19162
2431 1 29.5577 3.83713 3.02453
199 1 28.703 3.34422 4.0109
185 1 0.288111 5.2921 2.88239
2370 1 0.140908 4.63417 3.81497
103 1 1.4138 4.7646 3.09331
104 1 1.48983 5.70386 3.29721
180 1 2.84313 5.18498 3.39642
111 1 2.31242 4.49933 4.16827
112 1 1.79154 5.28571 4.21917
179 1 3.5824 4.98421 4.00556
421 1 5.37371 5.04855 2.98398
420 1 4.59853 5.63948 3.32448
331 1 6.36658 4.75173 3.23413
442 1 5.9071 5.02074 4.23203
825 1 7.71301 5.35906 2.87517
423 1 7.53266 4.8734 3.90383
826 1 8.27892 5.53156 3.69033
1157 1 9.99894 5.1567 3.30995
1158 1 9.22797 4.65547 3.62565
735 1 10.9396 4.36615 3.43922
758 1 10.699 5.49567 3.99134
1055 1 12.1508 4.37606 3.84826
912 1 12.3642 5.48319 4.10411
911 1 11.6893 5.23774 3.55976
1056 1 12.8755 4.70544 3.28542
1060 1 14.2431 5.12548 3.6747
1458 1 14.9353 4.42546 2.94205
1225 1 15.1709 5.59121 3.23353
1071 1 15.1868 5.04925 4.2463
1480 1 17.4885 4.6427 3.18154
1727 1 18.7319 4.54607 3.10607
1473 1 19.907 5.06581 3.25192
1716 1 19.0122 4.95044 4.14904
1782 1 21.18 4.90029 2.90096
1789 1 20.7941 5.28798 4.04551
2028 1 22.7491 4.99715 3.12059
1713 1 21.9781 4.94139 3.80605
2030 1 22.7842 5.69804 3.90925
2027 1 23.61 4.62825 3.33884
2040 1 25.5804 4.56023 3.46203
2348 1 24.3887 5.51076 3.1515
2036 1 26.5455 4.36822 3.24033
2112 1 26.3068 5.43365 3.85023
2335 1 27.5535 4.45463 2.8793
2035 1 27.1606 4.8834 3.73102
2037 1 28.2638 5.26752 4.08492
108 1 28.3911 5.27287 3.02295
107 1 28.6366 4.4213 3.41537
194 1 29.304 5.34898 4.08126
204 1 0.0624804 6.00611 3.59908
190 1 0.334132 7.13513 3.65842
189 1 0.845217 6.56289 3.11388
202 1 1.10969 6.48689 4.27423
184 1 2.25837 6.65379 3.62564
419 1 3.69238 5.85922 3.53588
281 1 3.19953 6.67289 3.02726
500 1 4.51261 7.11388 3.61343
512 1 5.06081 6.26838 4.00734
594 1 6.9068 5.76409 3.5093
593 1 5.92816 5.89505 3.43015
587 1 6.51482 6.80062 4.22679
819 1 7.27189 6.76137 3.28007
811 1 8.38146 6.45574 2.98173
504 1 7.7489 6.38444 4.09539
1135 1 9.62291 6.05806 3.0083
812 1 8.80129 6.33871 3.78145
897 1 9.84817 6.17946 3.96639
824 1 10.9704 5.71695 2.88571
898 1 10.6497 6.4776 3.53
1277 1 11.4904 6.94588 2.98492
1170 1 12.0342 6.46352 3.72159
1137 1 13.2528 5.7452 3.57224
1148 1 14.1165 6.28722 3.40396
1233 1 13.2917 6.97706 4.023
1160 1 14.924 6.76089 4.12393
1142 1 15.554 6.93984 2.88355
1226 1 16.0573 5.91362 3.22085
1481 1 16.8818 6.69861 3.19389
1558 1 16.1881 6.73347 3.96534
1464 1 17.5449 5.7356 3.52813
1489 1 17.7197 6.62774 4.09541
1715 1 18.5408 5.90942 4.16035
1474 1 19.4325 5.8428 3.54125
1795 1 18.7916 6.91586 3.82834
1774 1 21.3226 6.73925 3.28836
1781 1 20.6331 5.72948 2.99744
2121 1 20.4998 6.44904 3.93098
1773 1 21.5017 5.7964 3.55337
2029 1 22.3648 6.51589 3.48362
2031 1 23.3256 6.01207 2.9942
1791 1 23.41 6.85892 3.69101
2118 1 23.9698 5.78766 4.0708
2347 1 25.3292 5.79792 3.41954
2102 1 24.4369 6.65121 3.32622
2358 1 26.8602 5.82038 2.89735
2337 1 26.5082 6.65769 3.2405
2414 1 27.111 6.01156 4.18463
2428 1 26.7682 7.02453 4.22275
2499 1 28.2678 6.99789 3.50115
2413 1 27.803 6.13855 3.66353
207 1 28.8228 6.06044 3.57771
2438 1 29.2772 6.96771 3.82718
294 1 1.39355 7.52891 3.65561
58 1 1.3932 8.40969 2.8663
279 1 2.40745 7.44312 4.20528
280 1 2.53537 8.23031 3.71662
53 1 1.5805 8.30697 4.26103
575 1 3.79679 8.43476 3.11048
282 1 3.13076 7.57714 3.13641
569 1 5.49541 7.95595 3.57501
506 1 6.70574 7.69778 3.07577
588 1 6.48271 7.78821 4.16901
565 1 7.57689 7.84718 3.63738
566 1 8.45446 7.42784 3.49321
502 1 9.18483 8.38536 2.8948
803 1 9.53219 7.65957 3.67744
919 1 8.61461 8.26787 4.15978
1214 1 10.8289 7.70808 3.33514
804 1 10.2536 7.23371 4.13432
686 1 10.5498 8.48887 4.06665
1269 1 12.4965 7.4399 2.99808
1139 1 11.6873 7.42061 3.87319
1140 1 12.2813 8.16676 3.69407
1216 1 13.9128 7.76926 2.90029
1468 1 13.6646 7.89591 4.10276
1553 1 14.9823 7.73033 3.47363
1554 1 15.9177 7.75532 3.37384
1557 1 16.7276 7.50199 4.11819
1454 1 16.836 8.5007 3.4627
1490 1 17.9053 7.15341 3.36231
1807 1 18.2791 8.5695 3.68413
1808 1 17.9261 7.89088 4.19607
1547 1 19.1688 7.99257 3.17475
1548 1 19.8128 7.27544 3.15425
1893 1 19.6414 7.64067 4.23315
1868 1 19.9002 8.43646 3.64301
1853 1 20.8852 7.78328 2.92513
2122 1 20.7272 7.4255 4.14843
1859 1 21.0867 8.52896 3.69908
2107 1 21.6896 7.61486 3.76099
1792 1 22.8412 7.55184 3.35167
2169 1 24.1988 7.80961 2.91056
2275 1 24.0699 8.05828 3.95343
2276 1 24.9176 7.62301 3.90435
2199 1 25.2295 8.3185 3.16661
2338 1 26.3942 7.61227 3.36746
2191 1 25.8065 8.20134 4.08462
2518 1 27.0408 8.44293 4.12673
210 1 28.4759 7.90389 3.99003
2433 1 28.0568 8.34158 3.0622
2427 1 27.4593 7.54368 3.83681
2355 1 29.447 7.99594 3.1525
212 1 29.2919 8.4666 4.25
274 1 0.12645 9.70277 3.86857
54 1 1.32644 9.20997 3.93297
273 1 0.350946 8.75162 4.06703
57 1 1.83149 9.33829 2.92122
276 1 2.3847 9.29066 3.98944
24 1 2.73028 8.78809 2.87422
275 1 3.17779 9.56406 3.63972
277 1 3.98769 9.03355 4.22237
30 1 5.31297 9.9248 2.98255
571 1 5.44565 8.79372 2.86754
278 1 4.67076 8.94018 3.52392
596 1 6.0269 9.52249 3.84054
577 1 7.10744 9.83941 2.96348
505 1 6.4294 8.57201 3.46378
590 1 7.43764 8.92548 3.33071
589 1 8.09947 9.16821 3.90403
905 1 9.57055 8.7435 4.01021
584 1 9.84425 9.87676 4.21063
895 1 9.0408 9.5286 3.52632
1213 1 11.0631 8.6608 3.24007
906 1 10.1297 9.07079 3.33447
886 1 10.8881 9.61903 2.89844
1229 1 10.7663 9.47025 4.00875
903 1 11.9071 9.61562 3.51001
1235 1 12.8498 8.90835 4.24029
1219 1 12.9735 9.55566 3.41139
1152 1 13.5687 8.57843 3.46474
1220 1 13.9229 9.78453 3.35755
1228 1 15.4134 8.67176 3.55301
1227 1 14.9718 9.5488 3.6467
1570 1 16.2105 9.38396 3.28467
1574 1 18.4071 9.90793 3.44897
1573 1 17.6477 9.45162 3.10575
1497 1 17.478 8.91028 4.2759
1549 1 18.9156 9.04739 2.98077
1550 1 19.093 9.14939 3.93305
1867 1 19.9181 9.38875 3.41441
1871 1 21.3158 9.54128 3.67488
1860 1 22.0143 8.66537 3.71006
1861 1 22.5296 9.71148 3.69139
2177 1 23.0972 8.94458 3.07407
2190 1 23.2453 8.72409 4.19294
1926 1 24.4134 9.65738 3.28263
2192 1 25.4873 9.11178 4.20831
2200 1 26.1297 8.66478 3.11332
2505 1 26.8837 9.40248 3.47002
290 1 27.9622 9.51867 3.06094
2280 1 27.7286 9.45367 4.05027
291 1 29.65 8.93096 3.25558
2457 1 28.5851 8.97215 3.83815
292 1 29.0667 9.74774 3.31396
42 1 0.446027 0.768076 4.48684
39 1 1.88533 1.06243 4.94221
49 1 2.64444 0.0799191 5.61615
360 1 3.62437 0.368711 4.37296
448 1 3.8305 1.37593 4.6758
447 1 3.07297 0.974514 5.08474
358 1 4.99407 0.778829 4.73097
595 1 5.81119 0.329835 4.32325
781 1 5.96242 1.18128 4.87291
782 1 6.67159 0.552996 4.90885
615 1 7.88105 0.387876 5.04952
683 1 7.44816 1.30438 5.14043
682 1 8.74341 0.840964 4.98672
654 1 9.79719 0.833779 4.65995
653 1 9.61113 0.0741827 5.33119
1230 1 10.7309 0.208905 4.65343
910 1 10.2796 0.807831 5.51596
909 1 11.1818 0.57693 5.6909
1206 1 11.7619 0.399763 4.69163
1208 1 12.6259 0.356991 5.69267
1240 1 12.7016 1.13173 4.96514
1207 1 13.3419 0.126312 5.02183
1248 1 14.1889 0.282788 5.71364
677 1 14.0544 1.17972 5.11011
1246 1 14.3215 0.118438 4.38055
999 1 15.3711 0.632836 4.50713
1401 1 15.7659 0.688123 5.66132
1328 1 16.4747 1.37478 5.06426
1402 1 16.5694 0.23636 5.40228
1327 1 17.2954 0.857515 4.79389
1639 1 18.5235 0.417452 4.63404
1896 1 18.7298 0.704472 5.60843
1659 1 20.2258 1.11471 4.66493
1634 1 21.1335 0.434577 4.59672
1658 1 20.6935 0.0907667 5.66516
1856 1 22.7624 0.250496 5.44885
1855 1 22.8513 0.257632 4.47506
1635 1 22.3888 1.16433 4.92889
2193 1 23.4403 1.08705 5.39682
2194 1 24.1512 0.424183 5.22911
2256 1 25.223 1.07132 4.40714
1983 1 25.1934 0.492391 5.42735
2513 1 26.5768 0.97389 4.65954
2274 1 25.9914 0.136818 4.68686
2514 1 26.5015 0.847962 5.57961
2279 1 27.8836 0.376134 4.34415
2295 1 28.1835 1.23402 4.79182
1976 1 27.395 0.501704 5.34314
2293 1 29.7567 0.327845 5.16571
2528 1 29.1066 0.79347 4.36663
2304 1 28.9358 0.524462 5.65434
2385 1 29.5653 1.42014 5.14737
2352 1 0.839531 1.46209 5.06593
2447 1 1.22561 2.40028 5.58594
2351 1 0.194714 2.0474 4.77951
122 1 1.56707 1.98436 4.56889
45 1 2.51713 1.9226 5.23473
46 1 2.0968 2.81229 5.25557
128 1 3.28275 2.6901 5.09361
61 1 3.67978 1.69135 5.60124
357 1 4.80782 1.67345 4.46907
437 1 5.08695 1.75955 5.39252
428 1 6.70096 1.86009 4.89064
349 1 5.8679 2.67048 5.1644
343 1 7.7549 2.02888 4.42182
665 1 8.54085 2.83811 4.67681
361 1 7.73341 2.59729 5.29382
362 1 8.37501 1.86122 5.21167
754 1 9.41492 1.76754 5.32625
753 1 9.48189 2.71212 5.24135
982 1 10.3963 1.95829 4.59914
981 1 10.4631 2.82954 4.29213
995 1 11.1827 1.56646 5.00338
996 1 10.4432 1.83485 5.60127
672 1 10.6391 2.78726 5.33107
737 1 11.4854 2.61046 4.71224
738 1 12.2426 2.16661 4.36152
1237 1 12.3477 2.04925 5.36068
1239 1 13.1909 1.89577 4.62957
998 1 15.118 2.39874 4.56297
1090 1 15.6497 2.00127 5.33583
1162 1 14.3649 2.2956 5.40605
1403 1 16.4783 2.43951 4.96
1392 1 18.2853 1.52066 4.84173
1319 1 17.313 1.86017 5.34502
1741 1 18.1848 2.58041 5.09904
1641 1 19.1509 2.25934 4.7016
1642 1 19.478 1.80951 5.51691
1660 1 20.4387 2.03874 4.33242
1717 1 21.2947 1.47549 4.71601
1719 1 20.5948 1.77857 5.48212
1733 1 21.0274 2.73933 4.95807
1734 1 21.8892 2.32564 4.55553
1654 1 22.4692 2.73796 5.5455
1648 1 21.5674 1.79887 5.65838
1623 1 23.1492 2.05717 4.8591
1948 1 25.4644 2.44156 4.59995
1955 1 24.4064 1.49091 4.84914
1947 1 25.4849 2.46942 5.54779
1945 1 24.4209 2.41565 5.21893
2255 1 25.6442 1.55552 5.16164
2362 1 26.1397 1.81378 4.29972
1973 1 26.5643 2.33165 5.64377
2123 1 26.7134 2.8353 4.31811
2282 1 27.7314 2.3282 4.35418
2296 1 27.3775 1.63894 5.16014
2386 1 28.8937 2.05408 5.09588
2442 1 29.9517 2.75622 5.4885
2448 1 0.766402 2.86167 4.85754
2360 1 0.307977 3.79181 5.11289
127 1 2.80194 3.51645 4.88339
126 1 1.77446 3.86997 4.94006
130 1 3.79524 3.66599 5.30015
129 1 4.38604 2.93306 5.3193
431 1 5.46878 3.54746 5.55798
760 1 6.83148 3.17459 5.00068
432 1 5.75138 3.65819 4.59583
667 1 8.19475 3.3691 5.65938
829 1 7.51049 4.15082 5.317
761 1 8.85692 3.86924 4.85132
748 1 9.87502 3.61613 4.60336
671 1 11.0545 3.55358 4.84178
778 1 10.3005 3.88992 5.5565
1075 1 12.2346 3.3784 4.53203
1167 1 12.7396 4.13147 5.16268
1014 1 12.0496 3.02542 5.43287
983 1 14.1209 2.97253 4.71675
1081 1 13.1234 3.00606 4.87948
1079 1 13.7319 4.24097 5.09343
1080 1 14.4152 4.11915 4.46443
1134 1 15.1681 3.46311 4.87976
1381 1 16.2928 3.68579 4.59593
1404 1 16.0559 3.08045 5.62146
1420 1 17.3065 4.07959 4.37333
1742 1 18.229 3.53304 5.29088
1411 1 17.374 3.19343 4.85598
1311 1 19.8655 3.20423 4.7955
1731 1 19.0306 4.12543 4.90365
1752 1 19.2041 2.89236 5.66148
1732 1 19.9674 4.20918 5.28738
1650 1 21.0069 3.78962 5.00083
1649 1 20.5864 3.34036 5.70629
1729 1 22.3006 3.32148 4.53494
1730 1 22.032 3.69174 5.34253
1624 1 23.4769 2.87245 5.18783
1627 1 23.4543 3.25665 4.32362
2046 1 24.1472 4.05015 5.48492
2041 1 22.9685 4.12845 5.3455
1946 1 24.7028 3.29059 4.93234
2049 1 26.6371 3.41153 5.58054
1966 1 25.7779 4.09736 5.50171
1965 1 25.845 3.31678 4.91745
2050 1 27.055 4.18258 5.25459
2281 1 27.4061 2.93739 5.0752
2365 1 27.644 4.25746 4.39583
2366 1 28.1774 3.63973 4.87725
2285 1 28.5347 2.97682 5.57048
200 1 29.1359 4.15751 4.33506
2441 1 29.3633 2.94294 4.75473
203 1 0.493645 5.64763 4.30011
2369 1 0.961047 4.55586 4.32134
124 1 0.667687 4.77825 5.20539
123 1 1.1864 5.63455 5.04801
592 1 2.39672 5.33483 5.04398
191 1 2.95332 4.5462 5.14911
116 1 3.92585 4.72827 5.16988
591 1 3.24112 5.70201 5.07441
441 1 4.9399 5.18896 4.36981
115 1 4.87242 4.53838 5.28115
522 1 4.95269 5.63828 5.48706
348 1 6.79412 4.81745 4.88458
827 1 7.6815 5.22898 5.67333
830 1 8.17364 4.60111 4.83011
503 1 7.50714 5.62976 4.66234
751 1 8.94849 5.04629 4.45579
752 1 9.85481 4.716 4.39575
749 1 8.77268 5.30538 5.68289
750 1 9.41703 4.60404 5.36002
846 1 10.247 5.56779 4.91222
757 1 11.0244 4.63117 4.39646
1094 1 11.2314 4.79599 5.56435
1168 1 12.1003 4.76788 4.77504
1059 1 14.2054 5.61177 4.5004
1189 1 13.1815 5.11974 4.81597
1097 1 14.9447 4.83549 5.37574
1098 1 15.7266 4.49034 5.01369
1475 1 16.7754 5.00197 4.87871
1496 1 15.9393 5.55686 5.25304
1463 1 17.6221 5.1418 4.3448
1397 1 17.5712 4.5183 5.34497
1398 1 18.3378 5.02641 5.07249
1725 1 19.3893 4.97078 5.58359
1799 1 19.8409 5.57813 4.67275
1701 1 20.2857 4.5831 4.40729
1702 1 20.6697 4.97094 5.1798
1723 1 21.4191 5.67541 5.60997
1714 1 21.5372 4.59004 4.65555
2042 1 22.5472 4.3979 4.48951
1739 1 22.5138 5.69588 5.59342
1962 1 23.5995 4.49633 4.39405
1961 1 23.1571 5.21881 4.70802
2025 1 24.8298 4.89174 5.35991
2026 1 24.7108 5.05663 4.44222
2128 1 25.6087 5.53536 5.15172
2367 1 26.0737 4.73264 4.68183
2368 1 26.9577 5.10859 4.73886
2465 1 28.1475 4.70293 5.26267
2436 1 27.7399 5.61496 5.70189
117 1 29.6946 4.78461 5.13563
193 1 28.7829 5.34696 4.88725
138 1 0.422444 6.60393 5.04596
137 1 1.1459 6.37902 5.6276
284 1 2.08125 6.26542 4.85985
283 1 2.80644 6.73918 5.26084
201 1 1.57372 7.06724 4.8684
499 1 3.97318 6.87736 4.43891
183 1 2.93664 6.52416 4.30001
219 1 4.07 6.30334 5.40448
511 1 5.53113 7.03978 4.34089
509 1 4.94324 6.72702 5.30995
514 1 6.17968 5.75784 4.88625
513 1 6.93155 6.30865 5.33561
1064 1 8.329 6.09294 5.05555
1063 1 7.85081 6.8301 5.40366
917 1 8.34573 7.1298 4.52751
845 1 9.32761 5.94717 4.89308
831 1 9.86676 6.8763 5.12421
835 1 10.8105 6.42691 4.71807
1156 1 11.2638 6.53187 5.63051
836 1 11.4642 5.7258 4.71324
1169 1 12.0575 6.61676 4.70029
1153 1 12.6297 5.81031 5.43156
1190 1 13.1667 6.07073 4.70888
1252 1 13.1615 7.04866 5.14059
1255 1 13.9928 6.70583 5.6359
1072 1 15.6163 5.91553 4.36552
1177 1 14.8007 6.30886 5.06225
1476 1 16.7855 5.84287 4.36493
1499 1 16.0861 6.54839 5.18174
1495 1 16.8713 5.75947 5.55124
1485 1 17.2059 6.66245 4.98893
1421 1 18.4705 6.85315 5.01899
1486 1 17.7257 5.86442 5.05139
1478 1 18.8924 5.83912 5.29111
1796 1 19.4023 6.55049 4.49661
1790 1 20.7812 5.93063 4.83204
1800 1 20.094 5.77138 5.54157
1801 1 20.1662 6.96434 5.08549
1787 1 21.5587 6.67014 4.30934
1883 1 21.6599 6.64701 5.56828
1788 1 21.7971 5.81706 4.63034
2114 1 22.4905 6.52038 4.93755
2117 1 23.592 6.27098 4.83439
2127 1 24.8347 6.10119 5.03565
2129 1 24.9496 6.72506 4.33439
2111 1 25.9701 6.21651 4.40485
2140 1 26.8647 6.7075 5.32631
2133 1 25.7844 6.86651 5.39434
2445 1 27.9588 6.81459 4.58278
2038 1 27.9457 5.83595 4.75116
2446 1 28.3863 6.38102 5.40469
118 1 29.8607 5.7184 5.04724
113 1 29.6513 6.9614 5.59858
2437 1 29.2032 6.49331 4.63342
293 1 0.768328 7.66199 4.4278
214 1 0.327803 8.27515 5.09141
2308 1 2.15522 7.84933 5.28025
515 1 3.81223 7.90117 4.48024
35 1 3.13222 7.76666 5.31028
269 1 4.17451 7.81621 5.46886
36 1 3.13421 8.55052 4.73251
516 1 4.70572 8.20427 4.33902
510 1 5.22669 7.64082 5.15333
582 1 6.42407 7.47046 5.1525
916 1 7.01313 8.36446 5.65357
603 1 7.21776 8.49573 4.44982
918 1 7.35734 7.35503 4.56969
920 1 8.16324 8.02895 4.99496
1173 1 9.58579 7.96676 4.89245
833 1 8.97785 7.34853 5.38135
921 1 10.848 7.38192 5.08276
1174 1 10.1104 8.22371 5.61077
685 1 11.0354 8.32744 4.8753
1234 1 12.6144 7.54985 4.34831
1242 1 12.1656 8.30063 5.13494
1159 1 14.2614 7.17167 4.65449
1467 1 13.2174 8.12909 4.93201
1541 1 14.1548 8.53092 5.10473
1542 1 14.7045 8.41407 4.30937
1145 1 15.6674 7.50523 4.51544
1576 1 14.3686 7.65625 5.59443
1146 1 15.2131 7.20297 5.31446
1564 1 15.571 8.46698 5.11966
1563 1 16.1153 8.51853 4.29717
1559 1 17.0822 7.66664 5.28775
1560 1 16.174 7.66613 5.65961
1498 1 17.6234 8.53086 5.1503
1805 1 18.3528 7.93186 5.57377
1894 1 19.2868 7.49064 5.06012
1903 1 18.9425 8.57076 4.92937
1492 1 20.1232 8.16146 5.70994
1491 1 20.3593 8.25368 4.75349
1863 1 21.1891 7.52279 5.24964
1864 1 21.4978 8.30662 4.70996
2108 1 22.3275 7.56104 4.46383
2197 1 23.9456 8.0802 4.98061
2198 1 23.2863 7.37221 4.83702
1885 1 22.8953 8.15199 5.39793
2130 1 25.6924 7.26002 4.52171
2202 1 24.6803 7.3987 5.36368
2451 1 25.8455 8.49783 5.24127
2443 1 26.7217 7.75131 5.05106
2444 1 27.6241 7.9431 4.85163
2203 1 27.9166 7.3901 5.68958
209 1 28.7032 7.48171 4.78512
2439 1 29.3358 8.48629 5.39184
211 1 29.785 7.6192 4.47404
2292 1 0.541062 9.76762 4.78761
44 1 1.06631 8.89314 5.04774
43 1 0.523471 9.31041 5.70414
34 1 1.64261 9.90195 4.7502
33 1 2.10038 9.18157 5.23122
359 1 3.13598 9.65166 4.78577
59 1 3.98435 8.96522 5.70037
261 1 4.37574 9.95663 4.88883
600 1 4.74811 8.85569 5.07196
599 1 5.29127 9.37714 4.48194
604 1 6.96039 9.39715 4.29043
598 1 6.04482 8.67386 4.4786
368 1 6.19485 9.62853 5.11696
367 1 7.08494 9.31089 5.381
597 1 5.82639 8.70884 5.37541
585 1 8.00888 8.96991 5.41522
583 1 8.92647 9.85166 4.60455
914 1 9.17484 8.90633 4.95237
924 1 8.71598 9.67846 5.63998
913 1 10.119 9.2281 4.89583
1223 1 11.7704 9.37119 5.38032
1224 1 11.9069 9.11576 4.38855
1236 1 12.8303 9.29431 5.16702
1245 1 13.8153 9.26188 4.34376
1247 1 14.4621 9.44208 5.34308
1315 1 15.1569 9.3212 4.65746
1316 1 15.5553 9.71058 5.49391
1579 1 16.6923 9.15144 5.39671
1580 1 16.5814 9.59261 4.5782
1904 1 18.4047 9.33965 4.67194
1561 1 17.5607 9.77244 5.13303
1887 1 19.8612 9.66861 4.45631
1888 1 19.9652 9.06576 5.247
1895 1 19.2965 9.91675 5.47806
1872 1 20.835 9.25717 4.50918
1890 1 21.0573 8.65813 5.55146
1637 1 22.3452 9.16636 4.59371
1643 1 21.7641 9.61764 5.31129
1638 1 22.7835 9.19407 5.44056
2189 1 24.1574 8.95248 4.32428
1949 1 23.5404 9.6985 4.93126
1950 1 23.8128 8.97234 5.50192
2512 1 24.7191 9.49733 5.65068
2452 1 24.8737 8.60662 5.23013
2511 1 25.5334 9.40954 5.20049
2517 1 26.4911 9.0428 4.53228
2119 1 26.6299 8.98692 5.67789
1975 1 27.2175 9.61053 4.97044
2458 1 28.4126 8.88525 4.76989
2120 1 27.5873 8.63902 5.69536
2527 1 28.84 9.89127 4.42632
2291 1 29.6876 9.30002 4.77636
300 1 0.652843 0.475136 5.87758
2377 1 0.284527 1.08929 7.03572
40 1 1.60505 1.32254 5.79662
70 1 2.30317 0.58314 6.39996
364 1 4.0279 0.00542677 5.95119
67 1 4.12623 0.745755 6.69678
374 1 5.55733 1.17075 6.57978
363 1 4.72902 0.603994 5.7444
373 1 5.93469 0.625532 5.84437
618 1 6.9746 0.257386 5.81392
323 1 7.10137 1.30825 6.93742
622 1 8.0348 0.770981 6.47829
681 1 8.84737 0.939741 5.98801
698 1 9.72352 0.128486 6.74556
674 1 10.7067 0.677276 6.55402
1238 1 12 1.21461 5.77098
1572 1 12.6922 0.666554 6.63004
1571 1 13.6982 0.819277 6.61839
1322 1 14.5459 0.278443 6.69078
1332 1 14.7998 1.18935 5.8676
1331 1 15.3217 1.07712 6.71226
1323 1 16.6296 0.12375 6.45444
1333 1 16.2558 1.398 6.54801
1661 1 17.3999 0.748735 5.86848
1662 1 17.1896 0.86693 6.8116
1897 1 18.1821 0.707029 6.67369
1657 1 19.9389 0.648592 5.79372
1898 1 19.0906 0.204225 6.53873
1655 1 19.8287 1.30665 6.63513
1720 1 20.816 1.17785 6.20264
1737 1 21.2896 0.0783274 6.71139
1738 1 20.3438 0.282188 6.63559
1647 1 21.684 0.87974 5.81214
2210 1 22.2494 0.6865 6.80331
1980 1 21.476 1.1822 7.09822
1954 1 23.2256 0.719585 6.39886
2224 1 24.1748 1.01187 6.93405
1922 1 24.4164 0.288125 6.20542
2223 1 25.0584 0.570875 7.09199
1978 1 25.9506 0.907823 6.72721
2531 1 26.0806 0.0165281 7.12281
2242 1 28.1354 1.00344 6.87088
2241 1 27.3697 0.713412 6.41632
299 1 29.8656 1.0033 6.02806
2283 1 29.7607 0.0204247 6.66606
301 1 0.365431 2.04088 6.0378
302 1 1.02841 1.69861 6.65492
143 1 1.0426 2.65516 6.70077
48 1 2.05588 2.42032 6.22113
69 1 2.07185 1.45538 6.91976
62 1 2.96503 1.86084 6.25593
197 1 3.80648 2.78099 6.18876
365 1 4.53133 1.82297 6.50087
438 1 5.69628 2.06263 6.10331
198 1 4.81723 2.69195 6.2488
324 1 6.6898 1.46535 6.12434
759 1 6.85808 2.56159 5.77008
792 1 6.85921 2.40428 6.84946
689 1 8.3199 1.86882 6.81429
684 1 7.68564 1.56529 6.03673
668 1 7.83527 2.79056 6.35464
690 1 8.72528 2.27992 6.07598
641 1 9.74051 1.57442 6.47467
673 1 11.0831 1.47265 6.42971
642 1 10.3072 2.37565 6.51096
1070 1 12.7906 1.89042 6.59286
1013 1 11.6062 2.47067 6.0826
678 1 13.3838 1.57454 5.74952
1069 1 13.5567 2.52273 6.70681
1021 1 14.1819 1.74713 6.68593
1089 1 15.4991 2.25105 6.3044
1334 1 16.555 2.11504 5.98453
1320 1 17.9877 2.12774 5.94326
1366 1 17.2025 1.89929 6.74818
1326 1 18.8713 2.21374 6.52459
1410 1 19.8926 2.5104 6.33509
1409 1 20.7513 2.27231 6.69922
1636 1 22.4904 1.59137 5.80702
1986 1 21.8116 2.5834 6.62281
1653 1 23.0417 2.38025 6.24902
1957 1 23.7493 2.79606 7.00435
1951 1 24.09 1.72284 6.03716
1646 1 23.0393 1.6593 6.91582
1952 1 25.0463 1.46441 6.07146
1972 1 24.8704 2.27339 6.76667
1974 1 25.9946 1.79382 6.1183
2373 1 27.0919 1.79608 6.46452
1967 1 26.0039 2.82113 6.44891
2286 1 27.8546 2.27838 5.73798
2374 1 27.1882 2.72283 6.42596
2310 1 28.2939 2.1962 7.00325
2303 1 28.8446 1.4412 5.89134
2383 1 29.3376 2.74691 6.23629
141 1 0.986761 3.35831 5.87836
142 1 0.159149 3.50471 6.2549
150 1 1.22009 3.77686 6.91158
125 1 2.32072 4.0272 5.74472
47 1 1.95131 3.34533 6.44624
51 1 2.91425 3.22257 6.00988
52 1 2.92046 3.21162 7.06022
457 1 3.72192 3.90595 6.41411
458 1 4.50237 3.46133 6.86913
440 1 6.41395 3.94267 5.71787
449 1 6.05209 3.12544 6.53875
456 1 6.98788 3.43387 6.52296
694 1 8.46464 4.01885 6.70157
762 1 9.22391 3.55336 5.72055
675 1 8.76655 3.11656 6.95149
783 1 9.75634 3.41401 6.61951
777 1 10.9465 3.76831 6.22619
1096 1 12.5089 2.98438 6.94218
771 1 11.9926 3.96899 6.12833
1161 1 14.0403 3.08366 5.76648
1082 1 13.0101 3.00141 5.85672
1172 1 13.2742 4.16214 6.54451
1150 1 14.027 3.59921 7.02725
1133 1 15.0935 3.65689 5.80879
1149 1 14.6229 2.88865 6.68436
1506 1 14.9078 4.25897 6.96273
1418 1 15.6773 2.97337 7.08897
1412 1 17.1067 2.94403 5.74267
1084 1 16.3319 3.61963 6.49114
1164 1 16.5608 4.24988 5.73497
1083 1 16.9683 3.50741 7.13787
1163 1 17.3332 3.87361 6.19501
1751 1 18.529 3.28344 6.22955
1427 1 17.898 3.08484 7.07518
1670 1 19.322 3.15746 6.82173
1726 1 19.1735 4.09014 5.91897
1664 1 21.1457 4.22396 6.26198
1688 1 20.0926 3.86678 6.71855
1690 1 21.1606 3.41674 6.8152
1689 1 22.0429 3.61868 6.42082
1970 1 24.2628 3.0419 5.97905
1969 1 23.3744 3.41669 6.0606
1958 1 23.0545 3.44269 7.06593
2064 1 23.8947 3.96186 6.80966
2045 1 24.914 3.97725 6.05598
2063 1 24.7685 3.48757 7.0218
2137 1 26.7063 3.48811 6.83846
2138 1 25.808 3.83041 6.74958
2372 1 27.584 3.68171 6.01904
2381 1 28.3934 4.23046 6.85488
2382 1 28.2985 3.33465 6.72109
2384 1 29.2669 3.61158 5.77441
149 1 1.24325 4.45619 6.15235
2454 1 0.0834745 4.45124 6.02656
134 1 0.646886 5.28301 6.38114
133 1 0.44583 4.55179 6.90459
547 1 2.61342 4.3745 6.80991
469 1 2.58861 5.37094 6.63775
236 1 1.77948 5.2916 5.80246
192 1 3.08461 4.82895 6.02439
518 1 4.09383 4.82277 6.59922
517 1 4.89838 4.37171 6.38247
521 1 5.09546 5.33757 6.40856
439 1 5.80423 4.68966 5.79388
763 1 6.73378 5.27201 5.81793
464 1 5.90108 4.51864 6.88602
764 1 6.21588 5.48824 6.58887
455 1 7.29632 4.33953 6.33621
693 1 8.4601 4.33312 5.81799
443 1 7.80775 5.17875 6.76951
769 1 9.55456 5.16142 6.28126
765 1 8.98963 4.86085 7.02324
770 1 10.0985 4.43991 6.6896
1103 1 11.1792 5.00082 6.68212
1093 1 11.7109 5.5653 5.80656
772 1 12.3707 4.87993 6.32439
1104 1 11.8534 4.55806 7.11983
1171 1 13.3953 4.8442 5.87698
1192 1 13.8216 4.82329 7.02056
1505 1 14.3332 4.38605 6.19085
1191 1 14.5282 5.50764 6.89338
1501 1 15.6137 5.24836 6.94239
1414 1 15.7278 4.62435 6.1883
1413 1 16.6013 4.99094 6.33414
1665 1 17.9539 5.40197 5.98397
1666 1 18.1611 4.47775 6.16577
1423 1 17.5825 5.275 7.13094
1686 1 19.863 4.95834 6.58201
1405 1 18.8575 4.8497 7.03609
1663 1 20.723 5.08687 6.17786
1754 1 21.9649 4.79116 6.81832
1753 1 21.923 4.78156 5.79941
1684 1 23.0389 4.95113 6.89363
1963 1 23.47 4.89585 5.95109
2054 1 23.9352 5.37151 6.93375
1964 1 24.3683 4.72503 6.34591
1722 1 24.7814 5.70989 6.13605
2043 1 25.5232 4.89452 6.29732
2044 1 25.049 4.7139 7.11178
1811 1 26.1898 4.76325 7.0535
1812 1 26.4759 4.35456 6.19098
2449 1 26.6875 5.41664 5.91152
2371 1 27.4006 4.53622 6.46073
2466 1 28.7224 4.73191 6.03163
2453 1 29.4756 4.37116 6.76448
114 1 0.0421611 6.32747 6.09449
235 1 1.52108 5.75248 6.67218
206 1 2.24571 6.3075 6.01458
220 1 4.05714 5.99069 6.31261
205 1 3.13122 6.47969 6.24724
285 1 3.78275 6.97865 7.13628
839 1 5.00641 6.53882 6.32957
840 1 5.78068 6.17995 5.85803
608 1 6.57615 6.74829 6.3617
849 1 7.07422 6.02531 7.02764
828 1 7.60316 6.09776 6.06558
526 1 7.92914 6.88225 6.65446
832 1 9.7247 6.14703 5.83564
851 1 8.69199 6.31937 5.98226
852 1 8.70255 5.7679 6.77414
822 1 9.38999 7.06445 6.35175
922 1 10.6008 7.12991 5.98417
843 1 10.6251 5.85757 6.18432
844 1 10.4371 6.45924 6.99317
1155 1 11.6179 6.30066 6.56056
1154 1 12.3484 6.60325 5.81931
854 1 12.5554 6.94397 6.77571
1182 1 12.6673 5.79604 6.52606
1181 1 13.6017 6.02992 6.61601
940 1 13.6886 7.07093 6.9978
1178 1 14.8905 5.91064 5.94585
1256 1 14.5387 6.98424 6.34837
1415 1 15.5757 6.90796 6.42647
1416 1 15.9952 6.07379 6.151
1507 1 16.9773 6.06543 6.66342
1500 1 16.7195 6.80733 5.90027
1508 1 16.2611 6.59029 7.02418
1744 1 17.7732 6.35367 5.97938
1743 1 18.1284 6.5259 6.84168
1823 1 17.1745 7.10936 6.84571
1422 1 18.75 6.76066 6.02329
1802 1 19.9746 7.04865 6.09464
1477 1 19.0728 5.79638 6.23896
1826 1 19.175 6.5885 6.85713
1735 1 19.9846 6.10867 6.723
1724 1 20.959 6.0732 6.3307
1740 1 22.1985 5.88239 6.52514
1879 1 22.2651 6.86109 6.7024
1721 1 23.9422 5.80931 5.72758
2113 1 22.977 6.63265 5.74999
2053 1 23.4333 6.14213 6.94708
2116 1 24.0809 6.63227 6.18364
2149 1 24.2621 7.10076 7.04989
2134 1 25.7025 6.17319 6.08949
2115 1 24.9864 6.88635 6.22925
2450 1 26.6525 6.09437 6.58176
2139 1 26.4157 7.07262 6.11283
2435 1 27.5487 6.40563 6.16185
216 1 28.4831 6.00462 6.51386
215 1 29.1781 5.82414 5.90392
2204 1 28.6317 6.99374 6.1348
213 1 0.505561 7.56897 5.76956
224 1 1.39993 7.44198 6.37027
222 1 0.247104 7.16573 6.84353
218 1 0.0642702 8.04377 6.49831
223 1 2.12493 7.88779 6.90912
227 1 2.58567 7.32709 6.16721
2307 1 1.47871 8.27357 5.83213
295 1 2.58436 8.41538 6.08309
270 1 4.0112 7.25362 6.26679
228 1 3.1172 7.82464 6.76426
60 1 4.06939 8.4064 6.50938
611 1 4.95094 7.84937 6.31445
581 1 6.1211 7.87684 6.02649
607 1 5.88837 7.26129 6.80447
927 1 6.63837 8.30636 7.05693
928 1 6.97194 7.46239 6.99155
915 1 7.4258 7.54933 6.0063
586 1 8.04665 8.34029 6.21989
834 1 9.12528 8.07012 6.02283
821 1 9.80728 7.8194 6.66863
857 1 8.63067 7.70969 7.02518
936 1 11.3203 8.0078 5.84922
935 1 10.8359 7.99599 6.71321
1251 1 12.5406 7.56455 5.72198
853 1 11.9288 7.6656 6.5086
1266 1 13.5274 8.54166 5.99684
1166 1 14.2507 8.00133 6.98763
1265 1 13.1163 7.87096 6.62417
1335 1 15.4357 8.01812 6.70404
1575 1 14.7655 8.4567 5.95634
1588 1 16.631 7.98971 6.49233
1806 1 17.7681 7.48594 6.15509
1494 1 17.696 8.50997 6.39607
1825 1 19.1704 7.49794 6.98711
1816 1 18.6213 8.34384 6.54887
1603 1 19.7527 8.41259 7.05186
1793 1 21.078 7.46521 6.25188
1794 1 20.6621 7.69768 7.05422
1884 1 22.1128 7.47727 5.7694
1889 1 21.9272 8.47656 5.78487
1875 1 21.7594 8.36431 6.88948
1886 1 22.7363 8.03346 6.28992
2195 1 23.5733 8.56985 6.78608
1786 1 23.5596 7.64033 5.83284
1785 1 23.2948 7.21553 6.69963
2201 1 24.4437 8.0864 6.06144
2207 1 25.4898 7.73852 6.13805
2141 1 25.0724 8.08469 7.0411
2302 1 26.8587 8.02888 6.15514
2301 1 26.4111 8.28432 6.93466
2440 1 28.5167 8.35489 5.9731
2455 1 27.2733 7.21067 6.6911
217 1 29.191 7.79203 6.57547
2525 1 1.35018 8.71548 6.74242
2312 1 0.977145 9.96907 6.84727
2516 1 0.362517 9.0092 6.84504
315 1 1.83045 9.6152 6.06988
316 1 2.04783 9.65826 6.97722
296 1 2.80712 8.86403 6.9037
50 1 3.11378 9.35396 5.9933
388 1 3.37053 9.8647 6.97299
355 1 4.94418 9.20643 5.95603
623 1 4.88771 8.94644 6.95658
356 1 5.22795 9.99264 6.45499
624 1 5.74812 8.70318 6.68186
945 1 6.18635 9.72428 6.69979
946 1 6.7345 8.99417 6.31036
617 1 7.61927 9.72904 6.30266
838 1 9.03369 8.72651 6.83045
923 1 9.54922 9.18366 5.84898
697 1 8.7854 9.98198 6.82671
837 1 9.99549 8.92434 6.76794
1012 1 11.3311 9.80891 6.57901
669 1 10.5243 9.74133 5.73603
670 1 10.8414 8.86158 6.08606
1241 1 12.3685 8.6116 5.99558
1568 1 12.3837 9.64839 6.6743
1487 1 13.3864 9.80956 6.98939
1488 1 13.3457 9.70595 6.02122
1258 1 15.3009 9.04967 7.04753
1257 1 14.3795 9.03309 6.80507
1324 1 15.7079 9.97061 6.47774
1493 1 16.9425 9.09411 6.43661
1336 1 15.955 8.7462 6.25978
1581 1 17.5377 9.75271 6.92736
1582 1 18.0009 9.83948 6.05306
1819 1 19.8323 9.3355 6.38101
1815 1 18.8585 9.10121 5.99936
1891 1 18.8971 9.22302 7.0521
1820 1 20.6216 8.82027 6.58616
1644 1 21.915 9.37993 6.22122
2196 1 22.8416 9.06034 6.42911
1921 1 24.0365 9.96103 7.02098
2209 1 22.8638 9.92872 6.94511
1953 1 23.4564 9.87617 6.11944
1984 1 25.4361 9.97396 6.26341
2208 1 25.3511 8.72332 6.16045
2125 1 25.2535 9.18604 7.10688
2126 1 24.5102 9.10858 6.53469
2532 1 26.4669 9.92669 6.21894
2216 1 26.8729 9.3941 7.06589
2297 1 28.5279 9.66011 6.1048
2521 1 27.4776 9.65925 6.14455
2522 1 27.7731 8.93976 6.6707
2298 1 28.4016 9.83313 7.03436
2294 1 29.5369 9.57994 5.79578
2515 1 29.4566 8.78681 6.85352
66 1 1.2872 1.02815 8.53151
2305 1 0.301169 0.866738 8.44389
2311 1 1.45319 0.726571 7.27266
74 1 2.23924 0.79488 8.01912
1 1 3.02181 1.32938 7.21487
2 1 3.49599 0.679317 7.79227
453 1 5.6833 1.26092 8.25126
605 1 4.73809 0.809716 7.80845
371 1 5.44314 0.129504 7.55953
372 1 6.21282 0.647115 7.39013
390 1 6.75891 0.475007 8.3302
621 1 8.11893 0.56798 7.4798
704 1 8.40835 0.766212 8.48653
699 1 9.42505 0.152654 7.95596
679 1 9.11912 1.30742 7.51086
1018 1 10.0978 1.04224 7.3829
696 1 10.0606 0.888585 8.54962
933 1 10.8028 0.232054 8.30577
1011 1 11.8305 0.365296 7.16919
1261 1 11.542 0.869803 7.90338
1087 1 12.4436 1.32473 7.40473
1591 1 13.0077 0.393857 7.83774
1337 1 14.0708 0.0428059 8.54465
1009 1 15.4441 0.23844 7.56228
1023 1 14.4442 0.942285 7.74761
1010 1 16.1429 0.91656 7.50813
1349 1 17.8336 0.555021 7.69889
1899 1 19.7045 0.622009 7.55815
1656 1 20.4872 1.34316 7.34511
2220 1 21.354 0.960062 8.07755
1652 1 20.2541 0.705912 8.42365
1694 1 22.3549 1.21003 8.52841
2219 1 22.1314 0.439927 7.80061
2218 1 23.1132 0.737733 7.58242
2217 1 23.5933 0.0215943 7.93991
1993 1 24.2924 0.866546 8.04376
1994 1 25.0339 0.227009 8.10091
1990 1 25.849 0.875198 7.99493
1977 1 26.7091 1.23409 7.23292
1924 1 26.7098 1.00774 8.47199
2530 1 27.9541 0.61422 7.97861
2529 1 27.6074 1.41599 8.33453
1997 1 29.1507 0.909754 8.21789
2378 1 0.887351 1.57148 7.67527
2399 1 0.0753697 2.37002 7.2697
81 1 1.02294 2.65373 7.89432
82 1 0.476757 2.22638 8.52371
75 1 2.73294 2.17468 8.40554
144 1 1.88943 2.59038 7.26639
76 1 1.84651 1.81659 8.20637
68 1 4.01969 1.48016 7.30876
307 1 3.41457 2.37297 7.41957
79 1 3.96174 1.47857 8.43477
366 1 4.9736 1.82105 7.37325
450 1 5.4964 2.78646 7.22665
308 1 4.31932 2.46473 7.71174
707 1 6.68697 1.77732 7.97732
708 1 6.05253 1.9127 7.33239
452 1 6.03267 2.49795 8.15393
702 1 7.93742 2.50668 7.69503
703 1 8.43884 1.71256 8.27077
767 1 7.19138 2.40027 8.54217
676 1 9.2486 2.41578 7.2551
680 1 9.43371 1.87496 8.16923
1116 1 8.82716 2.83466 8.4557
1017 1 10.9494 1.58027 7.41745
1092 1 11.0517 2.78038 8.02174
1268 1 11.3489 1.80925 8.48661
1006 1 10.0381 2.65175 8.46987
1263 1 12.0921 2.28586 7.75006
1088 1 12.3165 1.43401 8.3637
1022 1 13.5874 1.48566 7.47624
1024 1 14.0304 1.45075 8.45763
1264 1 13.0069 2.30815 8.04982
1016 1 13.9048 2.83611 7.68066
1015 1 14.4666 2.03371 7.76986
1028 1 15.4933 1.8764 7.46974
962 1 15.0476 2.73031 8.2752
1027 1 15.2621 1.60172 8.40391
1365 1 16.5107 2.24387 7.28874
1345 1 16.3031 2.01782 8.24231
1346 1 16.958 1.51089 7.85289
1667 1 18.1273 1.64254 7.72304
1428 1 17.4022 2.84316 7.75074
1325 1 18.7006 2.53551 7.43067
1906 1 19.9023 1.92688 8.2022
1668 1 18.8915 1.4879 7.33905
1905 1 19.6473 2.09704 7.25301
1747 1 20.4138 2.78778 7.58944
1700 1 21.0547 1.94664 8.09416
1979 1 22.0563 1.71973 7.62754
1645 1 22.7593 2.46642 7.31739
1996 1 22.4077 2.3523 8.37416
2214 1 24.1562 1.90722 7.57536
2213 1 24.1677 1.98512 8.50874
2056 1 23.1504 1.67982 7.98107
1971 1 25.1662 1.60999 7.49003
1981 1 25.5008 2.44155 8.43817
2075 1 25.2347 2.7685 7.49132
1968 1 26.1922 2.2031 7.21486
1923 1 26.4712 1.84237 8.19343
2380 1 27.0456 2.6618 8.45705
2379 1 27.2831 2.45854 7.5021
1998 1 28.6593 1.82235 8.33888
2309 1 28.9365 2.78372 7.49501
2400 1 29.5688 2.41499 8.08305
72 1 1.35026 4.25608 8.27306
2472 1 0.272318 3.25489 7.90609
160 1 2.06089 2.9572 8.19064
159 1 2.14779 3.66914 7.56937
548 1 3.32715 4.0636 7.48281
524 1 4.10535 3.47511 7.93541
405 1 3.12459 3.56358 8.49185
523 1 4.99599 3.86725 8.09019
463 1 6.07335 3.80469 7.39947
791 1 7.02072 2.95953 7.53273
877 1 7.01857 4.15999 7.42581
378 1 5.98896 3.44546 8.50953
701 1 7.90194 3.41562 7.41231
784 1 9.38167 3.60184 7.5152
774 1 8.69382 3.85085 8.56263
1105 1 10.64 3.79579 7.32417
1095 1 11.5732 3.20242 7.2731
1091 1 11.5221 3.67212 8.17105
1099 1 13.1087 3.39526 7.70436
1512 1 14.1478 3.97394 7.9349
1511 1 14.8689 3.468 7.57873
1378 1 15.4703 3.96236 8.55813
1436 1 16.5206 3.16122 8.04995
1417 1 15.927 3.84815 7.44296
1518 1 17.4756 3.87932 8.29014
1517 1 18.3129 3.77219 7.92778
1748 1 19.6007 3.23072 7.82036
1669 1 19.0545 3.94499 7.29261
1284 1 19.7519 4.1527 8.53863
1682 1 21.0268 3.89374 7.72652
1681 1 20.6682 3.32772 8.43082
1985 1 21.5926 2.87624 7.55381
1755 1 22.4434 4.17981 7.67615
2059 1 21.8573 3.54862 8.29005
2060 1 22.7952 3.49026 8.55497
2071 1 23.9826 3.34669 8.29482
2093 1 23.4425 4.2488 8.18217
2072 1 24.4235 4.15951 7.92778
2057 1 25.6959 4.15897 7.86513
2076 1 26.139 3.21716 7.72346
2058 1 26.6054 4.16791 8.06581
2061 1 27.5225 3.4677 7.55646
2393 1 28.0944 2.8803 8.29221
2471 1 29.628 3.36093 7.14772
145 1 28.5892 3.77063 7.95949
2324 1 29.6475 4.27628 7.74873
2323 1 0.308136 4.89033 7.93159
140 1 1.03337 5.56914 8.26501
147 1 2.59393 4.94892 7.62324
148 1 1.7386 4.6015 7.35423
136 1 2.10747 5.15897 8.48107
153 1 4.20329 4.54615 7.69964
154 1 3.73303 5.33217 7.44506
533 1 4.9819 5.28359 7.45467
528 1 5.12951 5.23274 8.51658
527 1 5.86491 4.84172 8.08008
878 1 6.91981 4.42009 8.39895
850 1 6.64094 5.3954 7.5567
773 1 8.47325 4.29188 7.76145
444 1 7.63466 5.10008 7.73317
766 1 8.77203 5.38742 7.76703
848 1 9.60352 4.57578 7.77521
847 1 10.0516 5.3581 7.32138
1106 1 10.8821 4.6523 7.59703
787 1 10.9268 5.58779 8.15087
1108 1 12.1669 5.68344 7.3381
1107 1 12.187 5.07636 8.11339
1100 1 12.8035 4.31133 7.53427
1176 1 13.2041 5.31605 7.79653
1020 1 13.1853 4.52866 8.53977
1117 1 14.4306 5.64885 7.96117
1118 1 14.8477 4.74201 8.05685
1426 1 15.8224 4.77571 7.87839
1425 1 16.7162 4.45802 7.58118
1502 1 16.4152 5.55766 7.33733
1042 1 15.8437 5.68616 8.24411
1361 1 17.0621 5.26757 8.26945
1424 1 17.8743 4.31338 7.24008
1439 1 18.1766 4.91269 8.04156
1406 1 18.5466 5.69462 7.32783
1440 1 19.0875 4.80826 8.0874
1685 1 19.865 5.32601 7.48008
1687 1 20.0423 4.29897 7.53017
1746 1 20.8338 4.76822 7.15636
1745 1 20.7544 4.83534 8.08512
1749 1 21.6721 5.69192 7.77292
1756 1 21.8068 4.75272 8.07364
1683 1 22.7743 5.29978 7.74147
2136 1 24.4145 5.44752 7.91352
2004 1 25.4816 5.13783 8.19422
2074 1 25.579 5.68558 7.35995
2048 1 26.6568 5.29427 7.91928
2047 1 27.5081 5.49098 7.60347
2062 1 27.675 4.39312 7.5189
2476 1 28.3618 5.60494 8.05351
146 1 28.5033 4.62173 8.32598
2375 1 29.7177 5.57681 7.14903
2376 1 28.8878 5.0651 7.26436
2461 1 0.719658 6.80709 8.09635
2462 1 0.705975 6.31803 7.23443
470 1 2.81071 5.99818 7.26524
139 1 1.69805 5.79145 7.66751
174 1 2.32605 6.23379 8.28492
231 1 2.52189 7.06641 7.63851
232 1 1.61232 6.81159 7.32055
540 1 3.34701 6.29656 7.9965
519 1 4.20974 6.21214 8.51552
286 1 4.57281 6.48137 7.40347
534 1 5.60504 6.01163 7.47877
609 1 5.49525 6.95454 7.75239
535 1 5.90453 6.0687 8.5058
610 1 6.48165 6.74779 7.70302
560 1 7.47971 6.28266 8.11361
525 1 8.20655 6.32235 7.37713
1184 1 9.75126 6.09194 8.2641
1183 1 9.68042 7.09508 8.41072
858 1 9.09681 6.90413 7.38279
932 1 11.2761 7.04687 7.33048
931 1 11.5295 6.48172 8.04531
1187 1 12.569 7.10846 8.49833
1175 1 13.0004 6.24985 7.75916
1193 1 13.4551 7.10482 8.08258
1041 1 15.2948 6.13579 7.5846
939 1 14.3797 6.63736 7.46031
1253 1 15.007 6.62474 8.45969
1509 1 16.4063 6.7608 8.08428
1429 1 17.4628 6.28386 7.56863
1430 1 18.0229 5.97797 8.24651
1851 1 19.1957 5.89086 8.21241
1831 1 18.5911 6.82285 7.84036
1736 1 19.8691 6.4737 7.60973
1750 1 20.8449 5.84362 7.37191
1803 1 21.3712 6.78937 7.24319
2083 1 20.057 6.13212 8.54621
1809 1 20.5574 7.03576 8.09002
1804 1 22.1972 6.60667 7.69757
2135 1 24.0189 6.34526 7.86282
1814 1 23.2284 7.05245 7.81907
2073 1 24.9296 6.31066 7.19598
2152 1 25.089 6.25619 8.50883
2156 1 26.0921 7.13497 8.35942
2456 1 26.542 7.10907 7.18636
2086 1 26.2017 6.19463 8.17896
2154 1 27.9449 6.63817 7.26415
2153 1 27.1723 6.54484 7.82004
2463 1 29.7144 5.81631 8.21854
2475 1 28.7733 6.2669 7.5569
221 1 0.886077 7.74976 7.26576
311 1 0.516854 8.04046 8.15869
161 1 1.55019 7.78162 8.05774
318 1 3.86377 8.08172 7.67013
539 1 3.43163 7.21281 8.36269
317 1 2.95223 8.13678 7.79375
612 1 4.80487 7.58357 7.23957
619 1 4.46713 7.30173 8.25649
298 1 4.84174 8.39334 7.87623
297 1 5.75823 8.04774 7.70119
876 1 6.93413 7.76902 8.04188
614 1 7.76845 8.20762 7.4945
948 1 8.2845 8.22152 8.31058
875 1 7.70475 7.28668 7.77857
929 1 8.69518 7.22405 8.23071
692 1 9.37824 7.8975 7.63861
691 1 10.2127 7.57238 7.68263
942 1 11.273 8.39129 8.18864
869 1 10.8806 7.43371 8.4343
1244 1 12.0292 8.38991 7.22011
870 1 11.7307 7.5311 8.09479
1274 1 12.7834 7.84637 7.69724
1179 1 13.4842 8.54005 7.43788
1165 1 14.9586 8.2378 7.62272
1344 1 15.4032 7.16332 7.54066
1343 1 15.9705 7.99246 7.55346
1584 1 16.6105 8.0517 8.43202
1824 1 17.958 7.56182 7.27442
1510 1 17.2174 7.24906 7.92477
1587 1 17.1572 8.22499 7.29523
1910 1 18.7316 8.2371 7.91225
1832 1 19.3063 7.30182 8.12793
2147 1 21.2986 7.61152 7.82077
1828 1 20.0812 7.99754 8.04409
1880 1 22.4872 7.50982 7.30328
2225 1 22.2703 8.19344 8.28256
1760 1 22.1611 7.14613 8.5702
2150 1 24.0289 7.75111 7.68182
2143 1 23.38 8.50605 8.31976
2142 1 25.4837 7.24082 7.16552
2221 1 24.9478 7.3938 8.17399
2227 1 25.8841 8.50079 7.80414
238 1 27.907 7.78506 7.33202
2299 1 27.3081 8.44145 7.83275
2300 1 28.0227 8.03062 8.3746
237 1 28.7937 7.56171 7.62588
2408 1 29.8209 7.20711 8.45615
312 1 29.8334 7.76813 7.54738
2289 1 0.474391 9.64279 7.96892
2290 1 1.42249 9.88854 7.84462
63 1 2.67223 9.82447 8.01577
2526 1 1.57601 8.71789 7.66656
55 1 3.52631 9.25786 7.91752
387 1 4.31617 9.79806 7.30485
379 1 5.53756 9.15438 7.68246
629 1 4.68141 9.72285 8.38648
380 1 6.42002 9.5932 7.83255
626 1 7.32261 8.91059 8.27187
613 1 7.46009 9.11867 7.17049
687 1 8.42084 9.22015 7.77898
947 1 9.06132 8.6996 8.51803
688 1 9.39979 9.0852 7.6235
1243 1 11.2599 8.99097 7.26537
700 1 10.2102 9.86013 7.55499
941 1 10.47 8.76839 7.83602
1567 1 12.473 9.43316 7.60674
1004 1 11.7118 9.90092 8.23242
1273 1 12.5681 8.59346 8.33424
1180 1 13.3741 9.31463 8.1457
1321 1 14.428 9.7401 7.4976
1594 1 15.0699 9.67465 8.46593
1593 1 15.4622 8.80406 8.43107
1342 1 16.2806 9.00487 7.77282
1341 1 16.4655 9.89213 7.49822
1912 1 17.4872 8.68815 8.16252
1350 1 17.4381 9.70395 7.98583
1911 1 17.9975 8.93405 7.42346
1892 1 18.9617 9.82607 7.79151
1604 1 19.5871 8.87072 7.9041
2148 1 21.0879 8.58468 7.75937
1900 1 20.1921 9.79864 7.61809
2229 1 21.1133 9.79308 8.13414
1876 1 21.786 9.3021 7.27463
2232 1 22.2206 9.36084 8.26322
2231 1 22.8679 9.12461 7.52087
2205 1 24.1527 9.01624 7.82633
2206 1 25.0224 8.96473 8.24557
2215 1 26.8555 9.95416 7.82668
2484 1 25.868 9.68696 8.14581
2487 1 27.8423 9.40712 7.75241
2284 1 29.4516 9.65267 7.51777
2488 1 28.6775 9.52745 8.23336
2524 1 28.6524 8.67664 7.48812
2523 1 29.4681 8.66733 8.01018
3 1 0.567477 0.545 9.77067
65 1 0.941333 0.156715 8.83083
306 1 1.48983 0.955899 9.47972
11 1 2.45411 0.85128 9.60744
64 1 2.16845 0.0658546 8.82319
73 1 2.94048 0.934045 8.74064
639 1 3.47358 0.670846 9.97974
6 1 3.73461 0.105433 8.84282
77 1 4.0882 1.3663 9.46416
606 1 4.66308 0.804912 8.73429
386 1 5.44309 0.923735 9.44162
385 1 5.61759 0.231942 8.87931
712 1 7.14143 1.33916 8.80568
384 1 6.49957 0.886722 9.85892
389 1 7.2009 0.129116 9.09034
926 1 8.16629 0.0568119 9.47786
715 1 8.99829 0.656165 9.3193
1025 1 10.9261 0.942755 9.16875
1038 1 10.343 0.181096 9.83203
1026 1 11.234 0.00477092 9.16979
1262 1 11.8279 0.737253 8.79644
1592 1 13.081 0.725289 8.76534
1355 1 14.0004 0.66935 9.31585
966 1 13.0653 0.159728 9.72496
1030 1 12.9519 1.27869 9.93064
963 1 15.6987 0.563937 9.4797
1338 1 14.8903 0.65886 8.61378
964 1 15.0391 1.20418 9.49698
1577 1 16.0476 0.694328 8.62831
1357 1 16.7568 0.33763 9.48675
1329 1 18.0892 1.04055 8.6766
1330 1 17.2413 0.623907 8.58308
1358 1 17.7133 0.500317 9.63679
1758 1 19.3332 0.58422 9.00752
1618 1 18.7274 1.04592 9.867
1676 1 20.3369 0.687007 9.62641
1651 1 21.0755 0.480098 8.91104
1901 1 22.4924 1.14804 9.64921
2092 1 22.163 0.216417 9.13683
2238 1 23.1967 0.686787 8.58497
1915 1 22.8646 0.0927839 9.91326
2237 1 23.6024 0.809332 9.46023
1991 1 24.5919 0.968754 9.65225
1999 1 25.134 0.202338 9.20848
1989 1 25.3286 1.33685 8.63096
1935 1 26.1543 0.445197 9.7808
2483 1 26.4856 0.0142061 8.77415
2321 1 27.5146 1.04923 9.30814
2481 1 28.4206 0.984521 8.92714
2270 1 28.6008 0.882393 9.92104
2269 1 29.5407 0.950752 9.61611
2306 1 29.7678 0.0989691 8.81096
2482 1 28.7518 0.0794856 9.13507
157 1 1.37059 2.45902 8.99148
305 1 0.649269 1.49483 9.25355
478 1 2.2558 2.75377 9.30555
80 1 3.79189 2.47238 8.62405
395 1 3.01957 1.81126 9.51528
396 1 3.44782 2.66298 9.62846
454 1 5.09126 2.01201 8.61167
465 1 5.13002 1.82106 9.82521
472 1 4.61749 2.50389 9.3545
451 1 5.82807 2.5458 9.10267
383 1 6.21637 1.65812 9.33187
711 1 7.98205 1.4466 9.23532
950 1 7.42255 2.22237 9.76956
768 1 7.94906 2.76873 8.9968
713 1 9.26099 1.90147 9.25849
695 1 10.2639 1.71075 9.17219
1267 1 11.6814 1.66449 9.35826
1036 1 12.0972 2.49006 9.85153
1035 1 11.6005 2.72598 9.03107
1102 1 13.9474 2.40942 8.79771
1101 1 13.144 1.98384 9.0936
1340 1 13.9624 1.72288 9.66631
1044 1 13.0415 2.84974 9.87324
1339 1 14.649 2.34443 9.64775
1363 1 15.6519 2.5449 9.97819
1432 1 16.8529 1.50163 9.16483
1364 1 15.7749 1.93471 9.25754
1302 1 16.5341 2.56008 9.16195
1367 1 17.6036 2.53581 9.79153
1368 1 17.878 1.60193 9.52385
1431 1 17.3566 2.0912 8.58789
1285 1 18.5473 2.2893 8.6902
1757 1 19.2079 1.55443 9.0228
1606 1 19.8211 1.55255 9.73586
1286 1 18.5915 2.55998 9.58898
1610 1 19.5135 2.64503 8.89761
1605 1 20.4311 1.59557 9.00954
1696 1 20.4242 2.61001 9.89255
1699 1 21.0472 2.50347 8.85833
1693 1 21.6064 1.66186 8.96566
1995 1 22.4728 2.73298 9.21256
2055 1 23.2299 1.66747 8.92937
1902 1 22.8604 2.05241 9.82623
2069 1 23.3768 2.63845 8.85132
1992 1 24.0115 1.73723 9.84817
1982 1 24.9049 2.44442 9.14946
2008 1 25.5804 1.47949 9.92626
2080 1 26.7401 1.91404 9.2002
2079 1 25.9224 2.41673 9.49766
2322 1 27.6121 1.79778 9.83138
2390 1 27.6157 2.74248 9.28787
2243 1 28.5683 1.90879 9.56811
2249 1 29.6955 1.71415 8.81595
2250 1 29.745 2.52858 9.30561
158 1 0.795438 3.01572 9.6349
90 1 0.816514 3.55442 8.70887
132 1 0.030912 3.98154 9.03565
89 1 1.61825 3.54261 9.22231
416 1 2.5961 3.71547 9.5026
545 1 3.92723 3.55463 9.30408
471 1 4.99386 3.0735 8.65819
546 1 4.61145 4.11549 9.01053
543 1 5.35387 3.51978 9.54046
377 1 6.32229 4.03554 9.21603
468 1 6.60336 3.09932 9.61721
531 1 7.65196 3.77221 8.71727
786 1 7.43946 3.66331 9.94971
798 1 8.49471 3.48435 9.86881
1115 1 9.30915 3.31155 9.1304
1005 1 10.2633 2.9498 9.40754
1110 1 10.485 3.721 8.72905
855 1 10.5917 4.06243 9.69848
1058 1 12.0992 3.51388 9.6911
1019 1 12.4741 3.88252 8.63258
1047 1 13.0149 4.02329 9.59799
1031 1 14.0637 4.15767 9.00343
1032 1 13.5501 3.41495 8.69695
1051 1 14.0437 3.36771 9.85335
1437 1 15.1637 3.77212 9.8059
961 1 14.7193 3.28346 8.96917
1377 1 15.7813 3.20767 9.12352
1835 1 16.3039 4.09278 9.56981
1435 1 16.5364 4.02485 8.57339
1295 1 17.7673 3.67986 9.75476
1301 1 17.2757 3.11055 9.0592
1296 1 18.6924 3.55757 9.92322
1294 1 19.6863 3.52047 9.4767
1609 1 18.8062 3.32354 8.81087
1695 1 20.7529 3.58125 9.84553
2067 1 21.6679 4.12989 9.98552
2068 1 21.7055 3.57575 9.29504
1940 1 22.6433 3.68064 9.60994
2070 1 23.6692 2.94887 9.6579
2088 1 23.7132 4.0343 9.52587
2077 1 25.1926 3.44732 8.57842
2012 1 24.6703 3.6789 9.68547
2387 1 25.6997 3.72636 9.43943
2388 1 26.2113 3.50911 8.71079
2389 1 26.8275 3.25596 9.61521
2394 1 28.1245 3.69238 8.85765
131 1 29.2499 3.58857 8.87308
71 1 1.101 4.72324 9.05655
2464 1 0.181261 5.60985 9.0963
83 1 1.30232 5.42359 9.87773
2396 1 1.88995 4.67023 9.71303
226 1 2.80286 5.27529 9.60464
406 1 2.96355 4.48383 8.69619
135 1 2.96071 5.54574 8.59204
485 1 3.40748 4.38994 9.78078
551 1 4.00176 5.1724 9.26964
530 1 5.43783 4.6447 9.50299
529 1 6.15127 5.20611 9.29611
785 1 7.55847 4.4761 9.59025
532 1 7.91495 4.70359 8.62423
790 1 8.44371 5.453 9.09841
776 1 9.67253 4.2982 8.96458
795 1 8.69168 4.34737 9.47924
789 1 9.40421 5.42653 9.37027
775 1 9.92606 5.1839 8.58189
856 1 10.5518 5.01754 9.47953
1109 1 11.1003 4.51253 8.68848
1129 1 11.5498 4.68443 9.72377
1199 1 12.3296 5.53343 9.88289
788 1 11.5882 5.64624 8.87818
1130 1 12.3084 4.9057 9.20205
1111 1 13.5429 5.43297 9.01256
1112 1 13.717 4.90793 9.78047
1446 1 15.6138 5.38571 9.77454
1445 1 15.3043 4.71036 9.19759
1362 1 16.5098 5.07004 9.05562
1520 1 17.5684 5.31046 9.33506
1836 1 17.1991 4.33299 9.27572
1433 1 18.2323 4.75668 9.89853
1434 1 18.1779 4.34824 9.0174
1845 1 19.9884 5.49958 9.65868
1283 1 19.1058 4.53991 9.22212
1379 1 18.7309 5.66114 9.50155
1763 1 21.1356 5.36741 9.89878
1370 1 20.0286 5.06846 8.72145
1369 1 20.5318 4.46181 9.27905
1939 1 22.4288 4.36279 8.9922
1834 1 22.1345 5.05526 9.77339
1833 1 21.5219 4.79535 9.04099
2145 1 22.6285 5.44987 8.88848
2094 1 23.8711 4.79368 8.70407
1761 1 23.2311 4.7986 9.96373
2146 1 23.4728 5.67439 9.16989
2087 1 24.2815 4.79172 9.67093
2078 1 24.9396 4.32817 8.92979
2001 1 25.557 4.66096 9.81484
2151 1 24.7269 5.40789 8.9499
2329 1 26.822 4.66557 9.45864
2003 1 26.0172 4.61073 8.80679
2330 1 27.8 4.44547 9.522
2467 1 27.5759 5.11853 8.7212
2468 1 28.2558 5.47796 9.26067
86 1 29.3895 5.03606 9.65787
85 1 29.5304 4.89502 8.65402
2404 1 0.834358 6.50307 9.63014
230 1 1.83083 6.97412 9.33536
173 1 1.81451 5.93959 9.12326
225 1 2.60303 6.25667 9.71182
552 1 3.59625 6.03349 9.49215
520 1 4.07064 6.91901 9.14915
632 1 3.37661 7.05554 9.85455
536 1 5.17949 6.6025 8.8957
627 1 5.16057 5.76494 9.65486
954 1 6.16697 7.06834 8.73373
871 1 6.82096 6.22999 9.5316
872 1 5.89006 6.46989 9.65678
538 1 7.77899 6.69705 9.57691
930 1 8.3985 6.42479 8.63419
474 1 7.78133 5.72556 9.92116
559 1 7.44978 5.74954 8.891
554 1 9.1738 6.53508 9.47822
842 1 10.7066 6.2952 8.87191
841 1 10.2941 5.99973 9.73383
1276 1 10.2785 7.05159 9.42189
866 1 11.8398 6.59089 9.2067
865 1 12.6075 6.12049 8.74766
1196 1 13.3512 5.85737 9.98553
1194 1 13.6401 6.46895 8.76497
1530 1 14.1175 7.03298 9.67755
1195 1 13.1464 6.73082 9.58039
1596 1 15.3653 7.04092 9.3615
1120 1 14.5718 5.78244 9.05943
1046 1 16.3534 6.82641 9.40173
1045 1 16.7619 6.10277 8.97559
1830 1 17.8868 6.38666 9.38234
1852 1 18.9123 6.49459 8.94474
1846 1 19.9918 6.49443 9.4831
2084 1 20.9885 5.88286 8.59292
1810 1 21.1517 7.04831 8.84872
1817 1 21.8846 5.99363 9.41665
1818 1 22.6722 5.8602 9.95612
1759 1 22.5524 6.86371 9.40827
1813 1 22.9258 6.50256 8.57498
2132 1 24.0903 7.06063 8.59568
2131 1 23.695 6.70929 9.37553
2182 1 24.5633 6.0442 9.98775
2421 1 25.6712 5.78135 9.92476
2157 1 24.5581 7.13214 9.69868
2416 1 26.665 5.93178 9.86384
2155 1 26.2463 6.56744 9.13024
2085 1 27.045 5.97411 8.6421
2406 1 27.018 6.91845 9.96275
2470 1 28.0617 6.4563 8.74497
2469 1 29.0267 6.26591 8.8381
2494 1 28.7586 6.87724 9.63137
2478 1 29.8705 7.10627 9.51544
2477 1 0.668133 7.33469 9.00917
249 1 0.51787 8.20376 9.5138
250 1 1.32194 7.77103 9.78142
162 1 2.08663 8.30713 8.70107
229 1 2.45749 7.30828 8.66288
234 1 2.30209 8.19648 9.87722
310 1 3.11554 8.00578 9.21553
631 1 3.97149 7.78156 9.9208
620 1 4.10444 7.94167 8.93339
541 1 5.04031 7.45029 9.62652
601 1 5.36912 7.8898 8.68559
542 1 4.79676 8.36567 9.53924
953 1 6.26815 8.05252 8.81859
558 1 6.79131 7.45001 9.47779
557 1 7.08598 8.3313 9.18965
397 1 5.84975 8.52092 9.6241
537 1 7.5103 7.17043 8.76001
959 1 8.04334 8.18783 9.45333
960 1 8.50989 7.34255 9.39241
937 1 9.46033 7.7117 9.25441
882 1 11.0116 7.79177 9.39048
881 1 10.3372 8.15523 8.84989
1033 1 12.2604 7.5911 9.62991
1034 1 12.6169 8.46157 9.67467
1188 1 13.2293 7.67915 8.93841
1516 1 14.1078 8.08421 9.43279
1595 1 15.6375 7.4789 8.61918
1254 1 14.4984 7.41557 8.72297
1586 1 15.2972 8.13199 9.32246
1597 1 16.6012 7.86476 9.55326
1503 1 17.5861 7.60485 9.41426
1909 1 18.4808 7.68424 8.59769
1504 1 17.6198 8.54861 9.40961
1514 1 19.1787 7.29816 9.581
1908 1 18.6537 8.25037 9.66702
1822 1 19.5018 7.97218 8.89256
1821 1 20.3479 7.58054 9.28457
1842 1 21.8908 7.46671 9.9152
2226 1 21.6153 8.31899 8.99837
2239 1 22.8765 7.89669 9.87978
2144 1 23.0468 7.73043 8.82497
2081 1 23.786 8.26488 9.48112
2222 1 24.5714 8.18846 8.688
2158 1 25.3645 7.46741 9.19484
2492 1 26.923 8.18826 8.75685
2405 1 26.4994 7.51724 9.36354
2228 1 25.9228 8.33167 8.71074
2490 1 26.0082 8.56162 9.96793
320 1 27.769 7.4344 9.50157
2485 1 28.7144 7.24217 8.58663
2486 1 28.8131 7.86277 9.28806
2407 1 29.7047 8.07029 8.81476
2480 1 0.264832 8.89106 8.77151
314 1 1.53831 9.85486 9.70104
313 1 1.46765 9.05271 9.20801
233 1 2.4818 9.10967 9.73036
56 1 2.99806 9.09746 8.72065
392 1 4.1808 9.66287 9.74796
5 1 3.05968 9.95124 9.4968
309 1 3.64466 8.70922 9.51477
602 1 5.56608 8.87311 8.64036
630 1 4.32744 8.9341 8.77518
327 1 5.15803 9.4498 9.54686
328 1 6.08588 9.63098 9.71207
561 1 6.5587 9.14449 8.83402
562 1 6.96757 9.2002 9.66635
625 1 7.77824 9.21564 9.01541
925 1 8.68849 9.73009 8.75994
716 1 9.40469 9.9027 9.43647
938 1 9.60186 8.68616 9.41449
893 1 8.64669 9.086 9.6043
934 1 10.342 9.57689 8.81005
1037 1 10.2267 9.27887 9.97327
1003 1 12.5733 9.82326 8.65941
1272 1 11.6283 9.04637 9.06312
1590 1 13.5879 8.97547 9.15112
1515 1 14.4927 8.83952 8.92753
1351 1 14.7801 9.78734 9.48902
1352 1 15.548 9.28085 9.55049
1523 1 16.6721 9.22258 9.81395
1583 1 16.4246 8.85514 8.95622
1578 1 16.525 9.86309 8.66278
1546 1 18.4079 9.57629 9.68307
1674 1 18.3196 9.99064 8.69421
1907 1 18.5296 8.70465 8.80194
1673 1 17.5428 9.55596 9.03035
1602 1 19.5937 8.85742 9.4262
1601 1 19.1622 9.4882 8.84864
1827 1 20.3953 8.653 8.62688
2230 1 21.3096 9.28733 8.97676
1680 1 20.7312 9.78635 9.75776
1679 1 20.2557 9.67799 8.93135
2091 1 21.7906 9.69783 9.82479
1929 1 23.8545 9.60537 9.76514
2082 1 22.9965 8.83598 9.57113
2212 1 23.2872 9.75818 8.95112
2211 1 24.2458 9.48212 8.78116
2000 1 25.6255 9.43304 9.26883
1928 1 26.5958 9.26317 9.57407
2491 1 26.9328 9.09997 8.57987
2320 1 27.5005 9.96239 9.70001
244 1 27.7023 9.99137 8.70326
243 1 27.9045 9.10644 8.90389
2479 1 29.3994 9.08945 8.90108
2418 1 29.1345 8.92402 9.92692
247 1 29.766 9.7111 9.79544
ITEM: TIMESTEP
13000
ITEM: NUMBER OF ATOMS
2532
ITEM: BOX BOUNDS pp pp pp
0.0000000000000000e+00 3.0000000000000000e+01
0.0000000000000000e+00 1.0000000000000000e+01
0.0000000000000000e+00 1.0000000000000000e+01
ITEM: ATOMS id type x y z
4 1 0.920956 0.2429 0.581955
7 1 2.20157 1.08536 1.36107
8 1 1.96332 0.705689 0.490619
403 1 4.20049 1.27516 0.912194
640 1 3.17228 0.495239 0.894141
376 1 4.29265 0.12474 0.817608
461 1 5.32725 0.130897 0.796728
404 1 5.13263 1.26594 0.804713
375 1 4.75573 0.539834 0.0877421
944 1 6.53355 0.177301 0.546187
705 1 6.65056 1.17028 0.91475
706 1 7.41049 0.588236 1.15481
949 1 7.48803 1.38005 0.185131
943 1 7.36774 0.319626 0.0566959
720 1 8.37566 0.858413 0.495818
719 1 9.20901 0.380639 0.413144
1039 1 9.71977 1.21452 0.0113553
1040 1 10.6684 1.3078 0.152929
890 1 10.1557 0.805425 0.996683
1209 1 11.5877 0.223273 0.172211
974 1 12.1223 1.08437 0.464356
662 1 11.6714 0.531578 1.36851
973 1 12.0882 1.39865 1.36273
965 1 13.4331 0.341111 0.593619
1029 1 13.0945 1.25196 0.879213
1289 1 14.1108 0.969232 1.39705
1356 1 14.3765 0.550444 0.21903
1211 1 15.1606 0.0470112 1.07713
1282 1 15.8071 0.944705 0.591157
1543 1 17.1795 1.07749 0.298736
1298 1 17.6942 1.26793 1.25001
1617 1 18.2294 0.695245 0.652348
1544 1 17.3298 0.135003 0.517862
1843 1 19.2481 0.131842 0.146407
1613 1 19.2863 0.424957 1.14334
1614 1 19.3744 1.3405 1.10314
2065 1 20.2731 0.52403 0.70875
2066 1 21.1492 0.060446 0.685784
1675 1 21.0073 1.12348 0.241233
1916 1 22.3268 0.248764 0.704744
1612 1 21.5258 1.24052 1.23739
2009 1 23.2435 1.06201 0.404799
2236 1 23.954 0.549306 1.01166
2235 1 24.5784 1.31382 0.935537
1988 1 25.4645 0.867309 0.714828
1987 1 26.396 0.670564 0.980175
1936 1 26.8386 1.06345 0.13813
2496 1 27.6538 0.697139 0.649448
2495 1 28.2165 0.087288 1.22455
2246 1 29.4209 1.21432 0.5292
2245 1 28.7313 1.38801 1.17267
2265 1 29.1713 0.211125 0.558599
91 1 0.677452 2.08088 0.203827
12 1 2.13241 1.56499 0.0161746
14 1 1.51265 1.6919 1.06149
13 1 1.9455 2.55602 1.03936
477 1 2.52898 2.60166 0.228985
96 1 3.0963 2.51444 1.15772
330 1 4.28556 2.26727 1.14755
95 1 3.01623 1.6308 0.763675
78 1 4.09944 2.03582 0.18992
475 1 5.61278 2.28542 1.07241
466 1 5.09486 2.71118 0.265629
476 1 6.02962 1.92196 0.324387
651 1 6.75267 2.54081 0.796357
718 1 8.3922 2.69388 0.525547
731 1 8.00569 1.65143 1.06639
717 1 9.00554 2.16159 1.06225
733 1 9.68829 2.41101 0.0766313
714 1 8.80169 1.80531 0.0354551
800 1 10.7294 2.71237 0.566941
664 1 10.5827 1.76046 1.19598
969 1 12.5519 2.03461 0.63682
970 1 11.6128 2.089 0.699123
647 1 14.0331 1.9637 0.708412
1281 1 14.9661 1.43631 0.516221
1307 1 16.4236 1.92127 0.176055
1297 1 16.731 1.67253 1.26866
1308 1 15.7959 2.14199 0.877399
1461 1 16.7372 2.64578 0.872427
1387 1 18.5402 1.75157 0.582153
1388 1 17.7213 2.21315 0.784669
1384 1 19.1819 2.607 1.14467
1621 1 20.2336 1.81109 0.629645
1616 1 21.1963 2.48328 0.963709
1703 1 21.6035 1.93275 0.0676201
1704 1 22.2583 1.52837 0.656227
2010 1 23.4776 1.44279 1.22181
1678 1 24.0406 2.34429 0.781885
1934 1 22.9797 2.57725 0.679224
1677 1 24.6691 2.65207 1.37593
2007 1 25.6932 1.96405 0.773718
2023 1 24.8397 2.54431 0.120945
2253 1 26.6679 2.38629 0.324989
2254 1 27.0854 1.7419 0.915388
2248 1 28.0285 2.30889 0.677541
92 1 29.9238 2.65287 0.255721
16 1 29.734 2.04937 1.09815
2244 1 29.0769 2.14596 0.341641
2411 1 0.244093 4.11259 0.0813262
2395 1 1.23603 4.08695 0.110433
2397 1 0.855094 2.98649 0.782189
163 1 2.048 3.43629 0.467741
98 1 2.28779 3.4768 1.42156
415 1 3.13387 3.59927 0.363196
393 1 3.69835 3.37024 1.34097
394 1 4.00185 3.02032 0.445131
329 1 4.71668 3.01666 1.40479
544 1 4.97859 3.66575 0.456172
459 1 5.88878 4.2631 0.553609
417 1 6.01354 3.69308 1.38425
467 1 6.23032 3.32013 0.474768
722 1 7.76249 3.8237 1.35271
797 1 8.40077 4.17101 0.53141
734 1 9.70203 3.01372 0.913534
793 1 8.82163 3.42552 1.05111
859 1 9.54902 4.07696 0.166984
799 1 10.8381 3.65605 0.723116
1057 1 12.2987 3.98508 0.55662
740 1 12.075 3.2064 1.34699
1043 1 13.1929 2.9815 0.797226
1053 1 13.9468 3.59418 1.29111
1062 1 13.0552 4.02084 1.36053
1048 1 13.5244 4.17605 0.423222
1052 1 14.4839 2.91985 0.587162
1065 1 15.1611 4.0065 1.14723
1450 1 15.5747 3.11037 1.01501
1462 1 16.4196 3.24046 0.167882
1776 1 17.0745 3.90972 0.497551
1396 1 18.1561 3.17849 1.04504
1293 1 19.3956 2.93526 0.184696
1708 1 19.5245 3.8151 0.865075
1707 1 20.2984 3.22501 0.878495
1933 1 22.2393 3.04081 0.451279
1762 1 22.8013 4.05269 0.549382
1780 1 21.7067 3.54248 1.27461
2006 1 24.1359 3.35664 0.729943
2024 1 25.5933 2.94088 0.625721
2011 1 25.0174 4.01356 0.550822
2410 1 26.3431 4.07694 0.217528
2346 1 26.5591 3.28713 0.935405
2018 1 26.0311 4.2525 1.20956
2313 1 27.4623 3.20775 0.538457
2409 1 27.261 4.26686 0.480948
2314 1 28.1039 3.58146 0.0623796
2345 1 27.2344 3.69913 1.42654
2318 1 29.2125 4.15804 0.122081
2317 1 29.0215 3.59102 0.834876
2398 1 29.9609 3.08196 1.12394
2331 1 29.9618 4.11784 1.24296
2412 1 0.459472 5.02119 0.213377
88 1 1.168 5.00484 1.06344
164 1 2.38923 4.32138 0.70007
84 1 2.05741 5.4482 0.375957
156 1 3.18929 5.44886 0.549161
155 1 3.41967 4.53338 0.829917
481 1 4.27829 5.46443 0.494057
401 1 5.19831 4.76291 1.38316
628 1 5.46433 5.34849 0.422871
486 1 4.32882 4.36343 0.0722679
721 1 7.05217 4.36766 1.05294
549 1 6.52656 5.31456 1.32039
550 1 6.79408 5.44495 0.429602
460 1 6.69655 4.37391 0.122987
473 1 7.85376 5.06172 0.614133
867 1 8.81944 5.63849 1.21908
796 1 8.83958 5.00849 0.181382
802 1 11.2725 5.64564 0.153316
1186 1 10.6486 5.45414 0.996234
860 1 10.0821 4.80955 0.435317
1200 1 12.77 4.8561 0.349646
1221 1 11.7622 5.11488 0.877931
1114 1 13.7508 5.19446 1.0491
992 1 14.8625 5.05871 0.84774
1438 1 14.5751 4.36308 0.175927
1372 1 16.7503 4.93379 0.202173
991 1 15.8391 4.84353 0.835822
1452 1 16.9453 5.47905 1.1489
1451 1 17.0021 4.50104 1.24466
1519 1 17.5252 5.53356 0.212147
1775 1 17.8977 4.34025 0.840225
1380 1 18.9808 5.45761 0.407008
1698 1 19.8677 4.94739 1.10478
1697 1 20.1973 4.58379 0.330042
1691 1 21.1922 4.3663 1.01585
1692 1 20.906 5.25461 0.961244
2013 1 22.2359 4.60997 1.3061
1767 1 22.4351 5.65108 1.05522
2005 1 23.9314 4.31817 0.622741
2106 1 23.1736 4.99488 1.09733
2104 1 24.1639 4.9951 1.32555
2017 1 25.2275 4.74929 1.32493
2002 1 24.9453 5.19778 0.390779
2422 1 26.0243 5.28155 0.583811
2328 1 28.2547 4.37581 1.17544
2460 1 27.3432 4.76796 1.30669
2392 1 27.6387 5.43861 0.011453
2391 1 28.45 5.18617 0.395345
2332 1 29.6522 4.98197 0.880198
87 1 0.734329 5.82368 1.29223
2403 1 0.294975 6.25072 0.377124
152 1 0.727491 7.1043 0.463328
171 1 1.45994 6.31658 0.580538
175 1 2.46323 5.9852 1.14627
172 1 2.10658 6.90453 0.361562
176 1 3.11285 6.58293 0.666847
482 1 4.3155 6.41751 0.423368
487 1 5.39241 6.8319 0.647182
488 1 5.92981 6.14124 0.956042
563 1 6.75259 6.92434 0.464517
810 1 7.62667 6.48302 0.684725
868 1 8.62172 6.25429 0.482759
863 1 9.57652 5.82942 0.420707
806 1 9.23407 6.89259 1.25132
553 1 9.39222 6.92866 0.272496
864 1 10.2844 6.41686 0.698458
1123 1 10.9808 6.94884 1.16606
955 1 11.2903 6.81208 0.0582548
801 1 11.4613 6.15238 0.997838
956 1 12.2423 6.51864 0.272697
1143 1 13.0816 6.51451 1.1971
1529 1 13.9897 6.93647 0.589073
1113 1 14.1884 6.00367 1.25306
1119 1 14.6376 5.8831 0.0121211
1443 1 15.5128 5.93959 0.794556
1218 1 15.182 6.74932 0.380686
1131 1 14.9245 7.02713 1.33979
1444 1 16.3241 6.46541 0.813372
1371 1 16.5923 5.86896 0.00124241
1442 1 17.3896 6.58232 1.17378
1441 1 18.2333 6.18842 0.775018
1829 1 17.4826 6.76026 0.143723
1777 1 19.7256 6.00229 1.09235
1837 1 19.8659 7.07524 0.451058
1513 1 19.0895 6.46651 0.0283555
1840 1 21.2978 6.03299 1.39866
1839 1 21.2274 6.99659 1.14329
1764 1 20.5162 5.98595 0.39128
1841 1 21.6328 6.61761 0.280728
2105 1 23.4857 5.75111 0.45732
1849 1 23.0952 6.76323 0.870987
2096 1 24.2406 6.13289 1.24361
2181 1 25.0991 6.56426 0.720463
2415 1 27.0737 6.21827 0.676198
2185 1 25.9499 7.11742 0.195422
2186 1 26.1096 6.6477 1.00286
2401 1 28.0156 5.77239 1.30759
2423 1 27.6914 7.02373 0.759855
2493 1 28.1381 6.33246 0.0480876
177 1 28.746 6.61519 0.795408
2473 1 29.4165 5.96864 0.922978
2474 1 29.0977 6.04195 0.0190217
178 1 29.5733 7.01169 0.530682
151 1 1.23231 7.42227 1.2124
2504 1 0.708497 8.15765 0.501593
242 1 1.40601 8.4348 1.16918
246 1 2.21031 7.87342 0.822078
634 1 3.12287 8.44044 0.40536
633 1 3.25422 7.56071 0.898494
257 1 4.44949 7.32871 0.803938
258 1 4.28661 8.05211 1.42412
638 1 5.22064 8.25499 0.513505
398 1 6.03733 7.68084 0.0778177
381 1 6.92645 8.30025 0.176676
564 1 6.61207 7.7201 0.914113
958 1 8.37371 7.2508 0.78813
957 1 7.63955 7.54835 0.148706
657 1 7.81256 8.14066 0.929425
809 1 7.44798 7.24486 1.26196
902 1 9.38805 7.83668 1.09944
894 1 8.90141 8.20901 0.0631655
952 1 10.5179 7.99536 1.23091
1275 1 10.2358 7.80453 0.0537021
1280 1 11.5628 7.71177 0.639793
1279 1 11.5348 8.55893 1.07525
1354 1 13.0256 7.87271 0.737393
1353 1 13.9241 8.23598 0.846515
1217 1 14.8452 7.63317 0.442797
1232 1 14.8636 8.28901 1.33527
1521 1 15.8638 7.5493 1.09577
1598 1 16.7064 7.32776 0.348993
1525 1 16.5638 8.30301 1.06701
1585 1 15.8058 8.04536 0.0344021
1447 1 18.3925 7.37538 0.280266
1448 1 18.1286 7.28777 1.23779
1599 1 18.4719 8.18904 1.34457
1528 1 17.8709 8.25039 0.429111
1600 1 19.1828 8.03571 0.740358
1913 1 20.4451 7.81617 1.14471
1917 1 20.1017 8.20269 0.224061
1838 1 20.7879 7.21415 0.127751
1766 1 21.5587 8.23849 1.09642
1765 1 21.9981 8.43971 0.238578
1850 1 22.9289 7.5513 1.33369
2240 1 23.686 7.52515 0.127256
2159 1 23.6339 8.46204 0.645688
2160 1 24.3421 7.85739 0.870421
2163 1 25.1365 8.06327 0.164002
2315 1 25.8121 7.7836 1.23027
2489 1 26.4783 8.0104 0.590036
2424 1 26.9055 7.28067 1.25758
272 1 27.5958 8.01165 1.03278
267 1 28.394 8.00353 0.214618
319 1 27.2827 8.16594 0.00125054
268 1 28.9945 7.81163 1.03401
2503 1 29.9907 8.10141 1.07359
2417 1 29.55 8.11902 0.159967
240 1 0.0295444 9.88971 1.18265
241 1 0.616462 8.99122 1.05901
248 1 0.59796 9.32714 0.0350132
9 1 2.67531 9.62894 0.502343
245 1 2.29249 8.76394 1.08687
322 1 1.57374 9.50562 0.816347
321 1 1.50656 8.79799 0.215471
10 1 3.23611 9.27855 1.1725
462 1 5.6352 9.23487 0.999502
391 1 4.51619 9.09359 0.360495
573 1 4.35816 9.34205 1.36362
382 1 6.6099 9.09707 0.630609
891 1 7.52048 9.21592 1.06777
658 1 8.38166 8.7878 1.41346
650 1 8.5148 9.63279 0.721287
892 1 7.91869 8.89455 0.220921
649 1 9.22012 9.05264 0.435687
883 1 9.83617 9.77632 1.08981
1210 1 10.9838 9.74091 0.724635
951 1 10.4061 8.88465 0.985688
1203 1 12.8538 8.8191 0.881911
1259 1 12.2477 9.73712 1.0435
1260 1 12.2289 9.42505 0.154397
1271 1 11.435 8.6245 0.00744192
1204 1 13.6089 9.24403 1.33534
1589 1 13.7218 9.25543 0.056152
1347 1 15.3951 9.11101 0.659643
1348 1 14.6712 8.67398 0.188742
1212 1 14.489 9.48554 0.767329
1524 1 16.2902 9.94762 0.353018
1291 1 16.9809 9.61236 1.39138
1527 1 17.628 9.12672 0.184609
1844 1 19.8364 9.46251 0.415508
1545 1 18.7899 9.03922 0.378214
1847 1 19.063 9.44691 1.32229
1918 1 20.8534 8.85554 0.303456
1914 1 20.1014 8.71442 1.07694
2234 1 21.8457 9.29857 1.14887
2233 1 22.6515 9.29973 0.484588
1857 1 22.8493 9.83743 1.3818
1930 1 23.7293 9.44366 0.734098
1942 1 24.9717 9.78643 0.0428837
2164 1 24.5442 8.8288 0.279486
2316 1 25.6192 8.72709 1.06754
2319 1 26.9049 9.95814 0.418349
1927 1 26.7424 9.01372 0.575812
1941 1 25.7296 9.71866 0.666153
271 1 27.9561 8.92926 0.788357
2266 1 28.3567 9.91983 0.162935
239 1 29.7057 9.11098 0.833549
256 1 0.677253 0.461589 1.71929
119 1 0.692168 1.33647 2.10438
120 1 1.65467 1.08911 2.29835
19 1 1.63719 0.152515 1.70742
574 1 3.86666 0.120996 1.75447
266 1 3.00238 0.517262 2.35276
399 1 5.07251 0.022669 1.83753
412 1 5.63534 1.03903 2.45162
346 1 4.78366 1.05167 1.83743
400 1 6.00268 0.327812 1.55452
337 1 6.83307 0.927904 2.13348
578 1 6.29756 0.240786 2.61889
646 1 8.37814 0.75802 1.56093
568 1 7.72893 0.417418 2.39268
900 1 8.89918 0.372347 2.55972
741 1 9.74651 0.510295 2.12365
645 1 9.09497 1.37398 1.74889
661 1 11.2296 1.22146 1.84352
889 1 10.6861 0.264101 1.55697
655 1 10.625 0.595053 2.59204
987 1 11.5627 0.356806 2.31974
976 1 12.5403 0.763322 2.00593
967 1 13.9598 0.247218 2.31956
1288 1 14.9345 0.5788 1.92107
1287 1 15.7351 1.1157 1.69485
1555 1 16.5995 0.979613 2.32306
1565 1 16.9095 0.0372189 2.42815
1292 1 16.2858 0.184809 1.56467
1566 1 17.5123 0.33297 1.77033
1607 1 19.5012 0.925596 2.16397
1608 1 18.5772 1.19676 1.90442
1626 1 20.119 0.201607 1.65022
1611 1 21.1537 0.922463 2.03528
1622 1 20.3866 1.33507 1.45476
1882 1 20.3518 0.378226 2.76164
1858 1 22.2531 0.425215 1.83858
2172 1 23.2403 0.672362 2.01603
2171 1 23.9396 0.0579653 2.20041
2184 1 23.0404 0.0351176 2.84339
2161 1 24.5508 0.733382 1.80603
2019 1 25.6206 0.227609 1.82656
2020 1 25.3172 0.642289 2.60776
2261 1 26.7391 1.30296 1.82568
2262 1 25.8376 1.19987 1.64496
2271 1 26.9818 0.0946763 2.40039
2272 1 26.1069 0.00578153 2.82375
2333 1 26.4495 0.912318 2.76389
2349 1 27.7528 1.34077 1.5074
2350 1 27.8727 0.80727 2.32609
255 1 29.9035 0.960874 1.52553
288 1 29.1274 0.844677 2.32311
28 1 0.717588 2.27759 1.59888
2260 1 2.74564 1.93367 1.98938
37 1 1.76176 2.1494 2.29709
2259 1 3.58354 1.5885 1.77422
413 1 3.68093 2.52019 2.06969
345 1 5.00283 1.9164 1.80809
411 1 6.01027 1.45514 1.66718
333 1 5.82902 2.57737 2.00075
334 1 6.44261 2.53202 2.68659
652 1 6.93062 2.03835 1.56746
732 1 8.01064 2.50908 1.45081
816 1 7.66289 1.65409 2.32157
815 1 7.5589 2.59965 2.39591
659 1 8.58125 2.70551 2.38286
730 1 9.51525 2.42577 2.63524
779 1 11.3221 2.419 1.68097
729 1 10.1209 2.76779 1.94872
780 1 10.9219 2.05719 2.49991
663 1 10.0718 1.66018 2.01603
739 1 12.4728 2.34683 1.62054
908 1 12.1759 1.74911 2.56733
977 1 11.8135 2.72477 2.60306
648 1 13.7111 2.29062 1.52735
989 1 13.2781 1.77129 2.38104
990 1 14.1743 1.68065 2.75643
1067 1 12.8709 2.66054 2.78263
1050 1 13.8427 2.68953 2.44284
1290 1 14.5906 1.7843 1.5937
972 1 15.1944 1.62897 2.49826
971 1 15.3918 2.5082 2.57939
1299 1 16.2431 2.01048 2.34205
1455 1 16.9414 2.82396 1.92889
1300 1 16.9211 2.4542 2.8246
1556 1 17.3008 1.72161 2.07675
1395 1 18.0818 2.53174 1.77518
1306 1 19.0214 2.03697 2.43005
1632 1 20.0757 1.82315 2.42539
1706 1 21.0513 1.81753 2.84037
1615 1 21.0578 2.18941 1.85152
1303 1 20.2141 2.5058 1.67868
1374 1 22.0381 1.51264 2.46035
1937 1 21.911 2.54602 2.34397
1938 1 22.4181 2.29866 1.5826
1373 1 22.9686 1.63101 2.16871
1629 1 23.4684 2.68971 1.59086
2162 1 24.7661 1.59725 2.08677
1932 1 25.2709 2.48321 2.22109
2015 1 26.2268 2.28299 1.60217
2353 1 26.2023 2.69551 2.62842
2339 1 25.7223 1.73987 2.70988
2016 1 27.1617 2.5193 1.65541
2247 1 28.1531 2.25534 1.67335
2288 1 27.3352 1.83324 2.49099
15 1 29.3841 1.82485 1.96144
2342 1 28.7734 2.69768 2.38978
2341 1 29.0334 2.68766 1.43578
27 1 1.26458 3.02054 1.77535
2432 1 0.346303 4.12203 2.47035
105 1 2.84941 3.24395 2.57503
106 1 2.03378 3.7604 2.64857
97 1 2.97645 4.08098 1.79364
498 1 4.171 3.52458 2.35111
484 1 5.20619 2.86145 2.81131
402 1 5.06841 3.92903 1.806
332 1 5.93869 3.98861 2.85146
418 1 6.69889 3.06652 1.68748
746 1 7.9619 3.45496 2.55044
794 1 9.28042 4.225 1.48268
817 1 8.64201 4.22649 2.80364
660 1 9.29424 3.32744 2.09257
818 1 9.58916 4.25091 2.79504
723 1 10.265 3.76289 2.01794
744 1 10.8908 3.20365 2.57357
725 1 11.3248 3.9834 2.15775
1073 1 12.752 4.2517 2.31106
1049 1 13.997 3.62885 2.53958
1061 1 13.1484 3.21169 1.89971
1054 1 14.6928 3.15454 1.57124
1066 1 15.3353 3.76297 2.06027
1449 1 16.2564 3.55336 1.5012
1375 1 16.2844 3.35666 2.49327
1456 1 17.3345 3.58702 1.54803
1479 1 17.1495 4.16996 2.38489
1399 1 17.9895 3.3812 2.47115
1383 1 19.435 3.16106 1.88119
1459 1 19.4733 4.20347 1.81126
1386 1 19.3994 3.69558 2.83065
1460 1 20.3308 3.97027 1.52364
1304 1 20.5603 3.16225 2.3327
1874 1 22.8043 2.9543 2.74289
1779 1 21.4379 4.06005 2.03875
2034 1 22.8496 3.66407 1.87192
2033 1 22.27 3.84456 2.63007
2098 1 23.8046 3.89063 1.62581
2097 1 23.5822 3.99502 2.54389
1630 1 24.0717 2.94223 2.34681
2021 1 25.5479 3.37393 1.64312
2099 1 24.6989 4.07895 2.01378
2022 1 26.0024 3.94746 2.27196
2336 1 26.9573 3.7785 2.45862
2326 1 28.2827 3.47483 1.59406
2051 1 27.6727 2.96327 2.36274
2325 1 28.2211 3.77369 2.47859
2430 1 29.697 3.25702 2.10432
2429 1 29.1744 4.09648 2.10334
100 1 1.01454 4.86332 2.0894
99 1 0.113052 5.0553 1.86463
165 1 2.2466 4.78766 2.4951
166 1 2.3899 5.09652 1.56432
479 1 3.90828 4.71476 2.75052
507 1 4.12703 4.84461 1.75161
110 1 3.11004 5.41978 2.46289
508 1 4.67971 5.4351 2.25399
422 1 4.83027 4.40318 2.65644
635 1 5.72844 5.38206 2.06831
430 1 6.77553 5.19087 2.3445
636 1 6.02243 4.50836 1.94152
727 1 7.55284 5.34428 1.49929
429 1 7.42656 4.43208 2.22026
728 1 8.37703 4.81638 1.52534
807 1 9.85269 5.06984 1.83127
1136 1 9.13565 5.32158 2.65353
724 1 10.5835 4.45956 1.44588
1185 1 11.1888 5.52715 1.79282
808 1 10.5064 4.78393 2.46627
726 1 11.6572 4.69085 2.59616
1222 1 12.1575 5.13042 1.74404
1197 1 14.025 4.7874 2.65834
1198 1 14.246 4.63925 1.75521
1138 1 12.9105 5.64396 2.71171
1465 1 15.0679 5.27637 1.97055
1471 1 15.9532 5.61809 1.59313
1472 1 16.6357 5.29849 2.20852
1457 1 15.7871 4.85088 2.57642
1533 1 17.866 5.27138 1.52911
1534 1 17.5691 5.09564 2.32576
1470 1 18.5001 5.69335 2.63615
1469 1 19.1203 5.41572 1.9758
1728 1 18.6048 4.50501 2.16625
1711 1 21.1975 4.96777 1.85798
1393 1 20.342 4.72435 2.37239
2014 1 22.8032 4.65904 2.05994
1712 1 21.9892 5.39169 2.16842
2103 1 23.8653 4.99458 2.27503
2110 1 24.9876 5.07327 2.33363
2459 1 27.0628 5.25144 2.03398
2090 1 26.1105 5.709 1.55764
2109 1 25.9459 5.02483 2.48528
2327 1 28.1572 4.78877 2.00624
2402 1 28.8418 5.66518 1.87847
186 1 29.4131 4.84944 2.75852
170 1 0.446583 6.84106 1.47358
2425 1 1.28372 5.88089 2.19853
169 1 0.326898 6.26262 2.23364
2426 1 1.64397 6.53594 1.58181
168 1 2.60714 7.1259 1.6313
263 1 2.1878 6.31648 2.63398
182 1 3.71578 6.8594 1.48345
109 1 2.99161 6.24867 1.96109
181 1 3.98088 5.96206 1.42941
492 1 4.17378 6.50762 2.38708
493 1 5.24641 6.25839 1.73349
494 1 5.17461 6.33738 2.70673
491 1 4.73891 7.12248 1.86754
495 1 6.19721 6.97515 2.63476
496 1 6.43717 6.05525 2.59827
813 1 6.89829 6.3666 1.44735
874 1 8.39054 5.79926 2.14503
814 1 7.48333 6.27319 2.20146
873 1 8.23282 6.68705 1.70406
805 1 9.24085 6.24018 1.97349
862 1 10.3237 6.39933 1.81759
1278 1 11.3185 6.39729 2.14444
861 1 10.2617 6.85383 2.69897
1128 1 12.4379 6.67 2.09479
823 1 11.908 5.91785 2.80719
1144 1 13.2868 5.71637 1.76899
1127 1 13.3941 6.63581 2.33062
1466 1 15.1652 6.2372 1.98734
1215 1 14.391 6.96314 2.62316
1147 1 14.3143 5.82038 2.5954
1141 1 16.0543 6.634 2.12793
1482 1 17.1252 6.18944 2.39312
1772 1 17.4777 7.12908 2.12794
1771 1 18.0694 6.40388 1.8816
1484 1 19.0772 6.54137 1.83565
1770 1 19.7224 6.1308 2.54199
1483 1 18.9217 6.75472 2.76041
1769 1 20.5284 6.65829 2.58744
1778 1 20.3774 5.72443 1.76053
2032 1 22.7151 6.52741 2.44007
1784 1 22.1928 6.67988 1.49354
1783 1 21.6075 6.6957 2.27517
1768 1 23.1426 5.78944 1.74697
2166 1 23.5055 7.11531 2.57695
2165 1 23.9255 7.12452 1.70688
2089 1 25.4939 5.99094 2.26536
2095 1 24.3413 6.14958 2.27711
2420 1 26.2755 6.79771 2.01422
2419 1 27.1251 6.32647 1.82359
188 1 28.3696 6.79513 2.0898
2500 1 27.5612 6.85597 2.78665
2357 1 27.7765 5.84888 2.47712
187 1 29.2245 6.9144 1.66164
208 1 29.3967 5.94375 2.77057
251 1 1.24076 7.43993 2.3262
253 1 0.378139 7.91904 2.78569
259 1 0.570161 8.38162 1.85186
252 1 1.95289 7.86296 1.83792
264 1 2.36488 7.2151 2.64764
167 1 2.95115 7.90955 2.04849
576 1 3.92597 7.63919 2.51216
637 1 5.28549 8.37906 1.55244
489 1 5.69579 7.43778 1.64513
570 1 4.95615 7.66556 2.7745
579 1 6.51172 8.48369 1.48746
580 1 6.91231 7.76988 1.96818
490 1 5.85718 8.02979 2.40018
555 1 8.27314 7.77289 1.7933
820 1 7.62915 7.41368 2.63052
501 1 8.1862 8.20312 2.84542
556 1 8.83201 7.24844 2.44809
880 1 9.73747 7.42849 2.08314
879 1 10.4288 7.9394 2.46058
1124 1 11.2164 7.50741 1.84673
887 1 11.0765 8.50765 2.05441
1202 1 12.185 7.80566 1.67035
1270 1 11.6933 8.00918 2.73772
1151 1 12.7982 8.49689 2.8424
1201 1 13.1228 7.6529 1.85002
1132 1 14.0873 7.41846 1.6066
1126 1 13.9283 8.52296 1.96761
1231 1 14.9842 8.11867 2.28485
1522 1 16.7073 7.25532 1.45197
1360 1 15.9577 7.77347 2.10476
1453 1 16.923 7.91492 2.68
1526 1 17.3924 7.94568 1.49936
1551 1 18.0066 8.39738 2.63522
1532 1 19.8359 7.51811 2.07604
1552 1 18.6044 7.62826 2.33352
1531 1 20.1171 8.39118 2.36172
1854 1 20.9117 7.50701 2.05317
2173 1 21.9888 7.97659 2.10922
2174 1 22.8525 8.12144 2.37399
2170 1 24.1051 8.06693 1.95522
2101 1 25.0497 7.21269 2.81966
2501 1 25.1491 7.2044 1.79242
2502 1 25.0839 8.18134 1.93722
2258 1 26.8993 8.33211 1.88717
2257 1 26.0827 8.00574 2.26868
2510 1 27.7125 7.66906 2.10595
2434 1 27.1453 8.07831 2.84633
254 1 29.9074 7.53968 2.04297
2509 1 28.672 7.86672 2.15584
2356 1 29.0573 7.159 2.79276
22 1 0.889125 9.72847 2.77431
20 1 1.21892 9.37155 1.88158
23 1 2.19759 8.84178 2.02883
265 1 2.59591 9.67443 2.14285
17 1 3.47607 8.83561 2.1617
18 1 3.86009 9.55748 2.61581
572 1 4.61214 8.78957 2.31441
336 1 6.00056 9.36718 2.03357
335 1 6.89853 9.74227 1.8886
326 1 6.74398 8.59875 2.51583
325 1 7.58239 8.68803 2.04683
567 1 8.03049 9.59367 1.96264
884 1 8.98173 9.92013 1.60896
901 1 9.51867 8.70979 1.43334
896 1 9.02418 9.34042 2.54017
888 1 11.308 9.44369 1.73737
885 1 10.2244 9.36276 2.21421
1540 1 11.9799 9.42957 2.46984
1539 1 12.3335 8.86648 1.75207
975 1 12.9954 9.94829 1.86467
1125 1 13.5584 9.2823 2.38484
1318 1 15.0582 9.99504 2.70882
1538 1 14.6154 9.3782 1.89631
1537 1 14.4701 8.97607 2.76528
1359 1 15.7829 8.62181 1.67413
1865 1 17.0765 8.92393 2.29179
1569 1 15.9146 9.40228 2.35867
1866 1 17.8563 9.05658 1.732
1870 1 18.4344 9.85621 2.31479
1869 1 19.4123 9.70788 2.41756
1848 1 19.0217 8.82361 2.006
2179 1 21.1588 8.73298 1.86504
1625 1 20.2011 9.27395 1.91609
1919 1 20.6923 9.23347 2.83298
1920 1 21.2285 9.78858 2.29331
2180 1 21.5184 8.75338 2.73634
2167 1 22.7612 8.66472 1.46355
2168 1 22.2828 9.22441 2.09101
1862 1 22.0909 9.94726 2.83793
2188 1 23.6291 9.16804 1.72444
2178 1 24.0204 8.90311 2.74447
2187 1 24.5596 9.1959 1.57283
1925 1 25.0101 9.44621 2.55262
2263 1 26.5295 9.68558 1.47876
2264 1 25.827 9.25174 2.01905
2506 1 27.0387 9.0279 2.56608
2507 1 27.958 8.71414 2.06484
2508 1 27.465 9.45102 1.65312
289 1 28.2338 9.84596 2.22876
21 1 29.9227 9.85027 2.69796
287 1 29.2403 9.98164 1.86735
260 1 29.97 9.09747 1.91434
2251 1 29.0019 9.02067 2.35863
2252 1 28.9021 8.8266 1.46461
303 1 0.982075 0.267716 3.89476
121 1 1.39836 1.31747 3.90132
304 1 0.637936 0.827289 3.14827
31 1 2.17444 0.253705 3.03805
32 1 2.37037 1.1942 3.05785
342 1 2.53095 0.494387 4.1227
93 1 4.22049 1.19906 3.72889
341 1 3.18369 0.576819 3.42698
29 1 4.56607 0.471837 2.9748
354 1 5.45647 0.951741 3.55825
262 1 4.58357 0.00552742 3.98198
338 1 6.72042 1.34562 3.01311
370 1 6.44763 0.553412 3.50865
369 1 7.08764 1.016 4.06129
339 1 8.57065 1.3073 3.12931
899 1 8.24794 0.0582056 3.13305
616 1 7.88144 0.158308 4.10208
340 1 8.36708 1.28609 4.10378
710 1 9.29625 0.680875 3.7547
742 1 9.81094 0.0220234 2.9461
709 1 9.69575 1.14982 2.9777
656 1 10.4432 0.663857 3.50723
988 1 12.2119 0.459851 2.9655
907 1 11.4349 1.28002 2.93305
904 1 11.4872 0.431324 3.62771
994 1 12.4449 1.33266 3.55019
1205 1 12.5138 0.336653 4.15758
993 1 11.5778 1.34975 4.10603
1536 1 13.3716 0.966904 4.07251
1535 1 13.4347 0.880112 3.14662
968 1 14.4944 0.705743 2.98996
1249 1 15.3573 0.979217 3.5459
1317 1 15.9798 0.261372 2.90557
1000 1 15.8911 0.117684 3.999
1007 1 16.6247 0.967756 3.75746
1313 1 17.6279 0.588973 3.06574
1314 1 18.5465 0.763226 2.87396
1391 1 17.9145 1.09222 4.03455
1562 1 17.4784 0.0406788 4.13092
1310 1 19.902 1.1414 3.45453
1309 1 19.307 0.371735 3.4915
1640 1 19.0915 1.10964 4.21261
1633 1 20.5636 0.238201 3.78036
1718 1 20.8691 1.23693 3.84488
1881 1 21.227 0.68935 3.04392
1877 1 22.6087 0.887485 3.24878
1878 1 21.9145 0.878976 3.94986
2183 1 23.7154 0.508491 3.3245
1956 1 23.859 0.870709 4.27252
2176 1 24.4966 1.25196 3.14684
1960 1 25.4296 0.348306 3.67243
1959 1 24.7329 0.082302 4.20202
2334 1 26.0956 1.07347 3.6724
2273 1 26.6513 0.178336 3.99215
2498 1 27.5677 0.54066 3.32264
2497 1 28.5421 0.78535 3.36822
2267 1 29.667 0.644382 3.41086
2344 1 0.812608 1.97285 3.09244
2343 1 0.802963 2.44141 3.92188
41 1 0.0770663 1.4644 3.91592
445 1 2.46745 1.56167 4.14906
38 1 1.81348 2.33776 3.2481
446 1 2.56844 2.51535 4.25996
102 1 2.85853 2.26163 3.28512
101 1 3.46069 1.61242 3.0875
435 1 3.80589 2.14504 4.05156
414 1 3.91445 2.74345 3.0102
94 1 4.58724 1.51713 2.86877
353 1 5.68254 1.83871 3.2925
409 1 4.79207 2.27673 3.63804
350 1 5.66798 2.57176 4.24806
427 1 6.69732 2.11394 3.99063
344 1 7.64589 1.75163 3.44892
666 1 8.59032 2.28255 3.83686
644 1 9.42084 2.82438 3.91779
351 1 9.70089 1.65748 3.9103
743 1 10.3348 2.80707 3.21036
352 1 10.5859 1.84289 3.56893
978 1 11.5701 2.37816 3.502
1002 1 14.054 2.02039 4.08181
1001 1 13.2497 2.04449 3.56273
985 1 15.0137 2.09739 3.43995
1250 1 14.8678 1.46682 4.27677
986 1 15.9773 2.01975 3.35648
1407 1 17.0613 2.64102 3.93708
1008 1 16.0184 1.58304 4.19183
997 1 15.8681 2.79985 4.27377
979 1 17.3022 1.5653 3.17985
1408 1 17.1717 1.79258 4.25905
980 1 18.0747 2.11452 2.93001
1389 1 18.1682 2.35453 4.01468
1305 1 19.0202 1.97337 3.40695
1631 1 20.0646 2.26931 3.33513
1709 1 21.1243 2.71904 3.77061
1671 1 22.8008 2.22849 3.78829
1705 1 21.745 1.90777 3.5731
1672 1 23.3167 1.70623 3.13759
1620 1 23.7867 2.29969 3.9778
2175 1 24.3046 2.21515 3.03967
1619 1 24.7194 1.98599 3.92094
2340 1 25.5282 2.38062 3.44628
2361 1 26.8551 1.71977 3.65588
2287 1 27.8951 1.68817 3.26581
2052 1 27.2625 2.5408 3.14952
2278 1 28.8877 1.74041 4.00143
2268 1 29.8633 1.56689 2.95058
2277 1 28.8877 1.95101 3.0522
2519 1 29.7481 2.55216 2.90742
2520 1 29.6645 2.50416 3.89699
195 1 0.609521 3.08354 2.99592
2359 1 0.144249 3.6598 4.11311
196 1 0.936549 3.91698 3.42933
25 1 1.58085 3.13187 4.22325
26 1 2.04726 3.71506 3.59038
480 1 3.0263 4.23907 2.94106
497 1 4.03378 3.70744 3.29499
436 1 3.90134 3.11247 4.21511
434 1 3.3724 4.09416 4.06708
433 1 3.00177 3.32219 3.70408
410 1 4.90733 3.18389 3.85235
408 1 5.2887 4.21729 3.67209
407 1 4.48605 4.16241 4.23561
483 1 5.89859 3.10573 3.41717
425 1 6.8301 3.51588 2.92365
347 1 6.57342 4.16656 4.21337
426 1 6.82009 3.15488 3.81891
424 1 7.53087 4.15751 3.22809
745 1 7.9283 3.08949 3.4601
755 1 8.38953 4.15198 3.8173
756 1 7.72132 3.71127 4.26807
643 1 8.91007 3.31918 3.20176
747 1 9.93826 3.80888 3.70418
736 1 11.3891 3.49682 3.63202
1068 1 12.5829 2.91578 3.61036
1074 1 12.1337 3.83667 2.94627
1122 1 13.8863 4.16188 3.60326
1121 1 13.1718 3.76393 3.14961
984 1 13.7674 2.9789 3.74171
1076 1 13.0994 3.78951 4.2052
1077 1 15.2833 3.37636 3.02839
1078 1 14.7141 3.08836 3.75623
1382 1 15.4748 3.85128 4.00584
1376 1 16.2539 3.0622 3.38669
1085 1 16.4451 4.11602 3.72158
1086 1 17.1906 3.61733 3.38748
1419 1 18.2702 4.15423 4.25318
1400 1 18.6253 2.9678 2.94828
1390 1 18.8753 3.10214 4.05272
1385 1 19.5026 4.10481 3.7385
1312 1 20.0735 3.21411 3.85282
1710 1 21.2914 3.32445 3.05595
1798 1 21.0881 4.11737 3.78375
1394 1 20.3649 4.03557 3.05435
1873 1 22.1202 2.89108 3.40875
1797 1 22.0374 3.88569 3.77451
1943 1 23.7608 3.13913 3.32392
1944 1 23.0422 3.78684 3.39956
1628 1 24.251 3.72456 3.98736
1931 1 25.0303 3.1092 2.93025
2100 1 24.7165 4.1756 3.02079
2039 1 25.3647 3.86091 4.12023
2354 1 26.1078 3.20516 3.47184
2124 1 26.562 3.81513 4.23154
2364 1 27.5523 3.41281 3.77695
2363 1 28.2691 3.11874 3.19162
2431 1 29.5577 3.83713 3.02453
199 1 28.703 3.34422 4.0109
185 1 0.288111 5.2921 2.88239
2370 1 0.140908 4.63417 3.81497
103 1 1.4138 4.7646 3.09331
104 1 1.48983 5.70386 3.29721
180 1 2.84313 5.18498 3.39642
111 1 2.31242 4.49933 4.16827
112 1 1.79154 5.28571 4.21917
179 1 3.5824 4.98421 4.00556
421 1 5.37371 5.04855 2.98398
420 1 4.59853 5.63948 3.32448
331 1 6.36658 4.75173 3.23413
442 1 5.9071 5.02074 4.23203
825 1 7.71301 5.35906 2.87517
423 1 7.53266 4.8734 3.90383
826 1 8.27892 5.53156 3.69033
1157 1 9.99894 5.1567 3.30995
1158 1 9.22797 4.65547 3.62565
735 1 10.9396 4.36615 3.43922
758 1 10.699 5.49567 3.99134
1055 1 12.1508 4.37606 3.84826
912 1 12.3642 5.48319 4.10411
911 1 11.6893 5.23774 3.55976
1056 1 12.8755 4.70544 3.28542
1060 1 14.2431 5.12548 3.6747
1458 1 14.9353 4.42546 2.94205
1225 1 15.1709 5.59121 3.23353
1071 1 15.1868 5.04925 4.2463
1480 1 17.4885 4.6427 3.18154
1727 1 18.7319 4.54607 3.10607
1473 1 19.907 5.06581 3.25192
1716 1 19.0122 4.95044 4.14904
1782 1 21.18 4.90029 2.90096
1789 1 20.7941 5.28798 4.04551
2028 1 22.7491 4.99715 3.12059
1713 1 21.9781 4.94139 3.80605
2030 1 22.7842 5.69804 3.90925
2027 1 23.61 4.62825 3.33884
2040 1 25.5804 4.56023 3.46203
2348 1 24.3887 5.51076 3.1515
2036 1 26.5455 4.36822 3.24033
2112 1 26.3068 5.43365 3.85023
2335 1 27.5535 4.45463 2.8793
2035 1 27.1606 4.8834 3.73102
2037 1 28.2638 5.26752 4.08492
108 1 28.3911 5.27287 3.02295
107 1 28.6366 4.4213 3.41537
194 1 29.304 5.34898 4.08126
204 1 0.0624804 6.00611 3.59908
190 1 0.334132 7.13513 3.65842
189 1 0.845217 6.56289 3.11388
202 1 1.10969 6.48689 4.27423
184 1 2.25837 6.65379 3.62564
419 1 3.69238 5.85922 3.53588
281 1 3.19953 6.67289 3.02726
500 1 4.51261 7.11388 3.61343
512 1 5.06081 6.26838 4.00734
594 1 6.9068 5.76409 3.5093
593 1 5.92816 5.89505 3.43015
587 1 6.51482 6.80062 4.22679
819 1 7.27189 6.76137 3.28007
811 1 8.38146 6.45574 2.98173
504 1 7.7489 6.38444 4.09539
1135 1 9.62291 6.05806 3.0083
812 1 8.80129 6.33871 3.78145
897 1 9.84817 6.17946 3.96639
824 1 10.9704 5.71695 2.88571
898 1 10.6497 6.4776 3.53
1277 1 11.4904 6.94588 2.98492
1170 1 12.0342 6.46352 3.72159
1137 1 13.2528 5.7452 3.57224
1148 1 14.1165 6.28722 3.40396
1233 1 13.2917 6.97706 4.023
1160 1 14.924 6.76089 4.12393
1142 1 15.554 6.93984 2.88355
1226 1 16.0573 5.91362 3.22085
1481 1 16.8818 6.69861 3.19389
1558 1 16.1881 6.73347 3.96534
1464 1 17.5449 5.7356 3.52813
1489 1 17.7197 6.62774 4.09541
1715 1 18.5408 5.90942 4.16035
1474 1 19.4325 5.8428 3.54125
1795 1 18.7916 6.91586 3.82834
1774 1 21.3226 6.73925 3.28836
1781 1 20.6331 5.72948 2.99744
2121 1 20.4998 6.44904 3.93098
1773 1 21.5017 5.7964 3.55337
2029 1 22.3648 6.51589 3.48362
2031 1 23.3256 6.01207 2.9942
1791 1 23.41 6.85892 3.69101
2118 1 23.9698 5.78766 4.0708
2347 1 25.3292 5.79792 3.41954
2102 1 24.4369 6.65121 3.32622
2358 1 26.8602 5.82038 2.89735
2337 1 26.5082 6.65769 3.2405
2414 1 27.111 6.01156 4.18463
2428 1 26.7682 7.02453 4.22275
2499 1 28.2678 6.99789 3.50115
2413 1 27.803 6.13855 3.66353
207 1 28.8228 6.06044 3.57771
2438 1 29.2772 6.96771 3.82718
294 1 1.39355 7.52891 3.65561
58 1 1.3932 8.40969 2.8663
279 1 2.40745 7.44312 4.20528
280 1 2.53537 8.23031 3.71662
53 1 1.5805 8.30697 4.26103
575 1 3.79679 8.43476 3.11048
282 1 3.13076 7.57714 3.13641
569 1 5.49541 7.95595 3.57501
506 1 6.70574 7.69778 3.07577
588 1 6.48271 7.78821 4.16901
565 1 7.57689 7.84718 3.63738
566 1 8.45446 7.42784 3.49321
502 1 9.18483 8.38536 2.8948
803 1 9.53219 7.65957 3.67744
919 1 8.61461 8.26787 4.15978
1214 1 10.8289 7.70808 3.33514
804 1 10.2536 7.23371 4.13432
686 1 10.5498 8.48887 4.06665
1269 1 12.4965 7.4399 2.99808
1139 1 11.6873 7.42061 3.87319
1140 1 12.2813 8.16676 3.69407
1216 1 13.9128 7.76926 2.90029
1468 1 13.6646 7.89591 4.10276
1553 1 14.9823 7.73033 3.47363
1554 1 15.9177 7.75532 3.37384
1557 1 16.7276 7.50199 4.11819
1454 1 16.836 8.5007 3.4627
1490 1 17.9053 7.15341 3.36231
1807 1 18.2791 8.5695 3.68413
1808 1 17.9261 7.89088 4.19607
1547 1 19.1688 7.99257 3.17475
1548 1 19.8128 7.27544 3.15425
1893 1 19.6414 7.64067 4.23315
1868 1 19.9002 8.43646 3.64301
1853 1 20.8852 7.78328 2.92513
2122 1 20.7272 7.4255 4.14843
1859 1 21.0867 8.52896 3.69908
2107 1 21.6896 7.61486 3.76099
1792 1 22.8412 7.55184 3.35167
2169 1 24.1988 7.80961 2.91056
2275 1 24.0699 8.05828 3.95343
2276 1 24.9176 7.62301 3.90435
2199 1 25.2295 8.3185 3.16661
2338 1 26.3942 7.61227 3.36746
2191 1 25.8065 8.20134 4.08462
2518 1 27.0408 8.44293 4.12673
210 1 28.4759 7.90389 3.99003
2433 1 28.0568 8.34158 3.0622
2427 1 27.4593 7.54368 3.83681
2355 1 29.447 7.99594 3.1525
212 1 29.2919 8.4666 4.25
274 1 0.12645 9.70277 3.86857
54 1 1.32644 9.20997 3.93297
273 1 0.350946 8.75162 4.06703
57 1 1.83149 9.33829 2.92122
276 1 2.3847 9.29066 3.98944
24 1 2.73028 8.78809 2.87422
275 1 3.17779 9.56406 3.63972
277 1 3.98769 9.03355 4.22237
30 1 5.31297 9.9248 2.98255
571 1 5.44565 8.79372 2.86754
278 1 4.67076 8.94018 3.52392
596 1 6.0269 9.52249 3.84054
577 1 7.10744 9.83941 2.96348
505 1 6.4294 8.57201 3.46378
590 1 7.43764 8.92548 3.33071
589 1 8.09947 9.16821 3.90403
905 1 9.57055 8.7435 4.01021
584 1 9.84425 9.87676 4.21063
895 1 9.0408 9.5286 3.52632
1213 1 11.0631 8.6608 3.24007
906 1 10.1297 9.07079 3.33447
886 1 10.8881 9.61903 2.89844
1229 1 10.7663 9.47025 4.00875
903 1 11.9071 9.61562 3.51001
1235 1 12.8498 8.90835 4.24029
1219 1 12.9735 9.55566 3.41139
1152 1 13.5687 8.57843 3.46474
1220 1 13.9229 9.78453 3.35755
1228 1 15.4134 8.67176 3.55301
1227 1 14.9718 9.5488 3.6467
1570 1 16.2105 9.38396 3.28467
1574 1 18.4071 9.90793 3.44897
1573 1 17.6477 9.45162 3.10575
1497 1 17.478 8.91028 4.2759
1549 1 18.9156 9.04739 2.98077
1550 1 19.093 9.14939 3.93305
1867 1 19.9181 9.38875 3.41441
1871 1 21.3158 9.54128 3.67488
1860 1 22.0143 8.66537 3.71006
1861 1 22.5296 9.71148 3.69139
2177 1 23.0972 8.94458 3.07407
2190 1 23.2453 8.72409 4.19294
1926 1 24.4134 9.65738 3.28263
2192 1 25.4873 9.11178 4.20831
2200 1 26.1297 8.66478 3.11332
2505 1 26.8837 9.40248 3.47002
290 1 27.9622 9.51867 3.06094
2280 1 27.7286 9.45367 4.05027
291 1 29.65 8.93096 3.25558
2457 1 28.5851 8.97215 3.83815
292 1 29.0667 9.74774 3.31396
42 1 0.446027 0.768076 4.48684
39 1 1.88533 1.06243 4.94221
49 1 2.64444 0.0799191 5.61615
360 1 3.62437 0.368711 4.37296
448 1 3.8305 1.37593 4.6758
447 1 3.07297 0.974514 5.08474
358 1 4.99407 0.778829 4.73097
595 1 5.81119 0.329835 4.32325
781 1 5.96242 1.18128 4.87291
782 1 6.67159 0.552996 4.90885
615 1 7.88105 0.387876 5.04952
683 1 7.44816 1.30438 5.14043
682 1 8.74341 0.840964 4.98672
654 1 9.79719 0.833779 4.65995
653 1 9.61113 0.0741827 5.33119
1230 1 10.7309 0.208905 4.65343
910 1 10.2796 0.807831 5.51596
909 1 11.1818 0.57693 5.6909
1206 1 11.7619 0.399763 4.69163
1208 1 12.6259 0.356991 5.69267
1240 1 12.7016 1.13173 4.96514
1207 1 13.3419 0.126312 5.02183
1248 1 14.1889 0.282788 5.71364
677 1 14.0544 1.17972 5.11011
1246 1 14.3215 0.118438 4.38055
999 1 15.3711 0.632836 4.50713
1401 1 15.7659 0.688123 5.66132
1328 1 16.4747 1.37478 5.06426
1402 1 16.5694 0.23636 5.40228
1327 1 17.2954 0.857515 4.79389
1639 1 18.5235 0.417452 4.63404
1896 1 18.7298 0.704472 5.60843
1659 1 20.2258 1.11471 4.66493
1634 1 21.1335 0.434577 4.59672
1658 1 20.6935 0.0907667 5.66516
1856 1 22.7624 0.250496 5.44885
1855 1 22.8513 0.257632 4.47506
1635 1 22.3888 1.16433 4.92889
2193 1 23.4403 1.08705 5.39682
2194 1 24.1512 0.424183 5.22911
2256 1 25.223 1.07132 4.40714
1983 1 25.1934 0.492391 5.42735
2513 1 26.5768 0.97389 4.65954
2274 1 25.9914 0.136818 4.68686
2514 1 26.5015 0.847962 5.57961
2279 1 27.8836 0.376134 4.34415
2295 1 28.1835 1.23402 4.79182
1976 1 27.395 0.501704 5.34314
2293 1 29.7567 0.327845 5.16571
2528 1 29.1066 0.79347 4.36663
2304 1 28.9358 0.524462 5.65434
2385 1 29.5653 1.42014 5.14737
2352 1 0.839531 1.46209 5.06593
2447 1 1.22561 2.40028 5.58594
2351 1 0.194714 2.0474 4.77951
122 1 1.56707 1.98436 4.56889
45 1 2.51713 1.9226 5.23473
46 1 2.0968 2.81229 5.25557
128 1 3.28275 2.6901 5.09361
61 1 3.67978 1.69135 5.60124
357 1 4.80782 1.67345 4.46907
437 1 5.08695 1.75955 5.39252
428 1 6.70096 1.86009 4.89064
349 1 5.8679 2.67048 5.1644
343 1 7.7549 2.02888 4.42182
665 1 8.54085 2.83811 4.67681
361 1 7.73341 2.59729 5.29382
362 1 8.37501 1.86122 5.21167
754 1 9.41492 1.76754 5.32625
753 1 9.48189 2.71212 5.24135
982 1 10.3963 1.95829 4.59914
981 1 10.4631 2.82954 4.29213
995 1 11.1827 1.56646 5.00338
996 1 10.4432 1.83485 5.60127
672 1 10.6391 2.78726 5.33107
737 1 11.4854 2.61046 4.71224
738 1 12.2426 2.16661 4.36152
1237 1 12.3477 2.04925 5.36068
1239 1 13.1909 1.89577 4.62957
998 1 15.118 2.39874 4.56297
1090 1 15.6497 2.00127 5.33583
1162 1 14.3649 2.2956 5.40605
1403 1 16.4783 2.43951 4.96
1392 1 18.2853 1.52066 4.84173
1319 1 17.313 1.86017 5.34502
1741 1 18.1848 2.58041 5.09904
1641 1 19.1509 2.25934 4.7016
1642 1 19.478 1.80951 5.51691
1660 1 20.4387 2.03874 4.33242
1717 1 21.2947 1.47549 4.71601
1719 1 20.5948 1.77857 5.48212
1733 1 21.0274 2.73933 4.95807
1734 1 21.8892 2.32564 4.55553
1654 1 22.4692 2.73796 5.5455
1648 1 21.5674 1.79887 5.65838
1623 1 23.1492 2.05717 4.8591
1948 1 25.4644 2.44156 4.59995
1955 1 24.4064 1.49091 4.84914
1947 1 25.4849 2.46942 5.54779
1945 1 24.4209 2.41565 5.21893
2255 1 25.6442 1.55552 5.16164
2362 1 26.1397 1.81378 4.29972
1973 1 26.5643 2.33165 5.64377
2123 1 26.7134 2.8353 4.31811
2282 1 27.7314 2.3282 4.35418
2296 1 27.3775 1.63894 5.16014
2386 1 28.8937 2.05408 5.09588
2442 1 29.9517 2.75622 5.4885
2448 1 0.766402 2.86167 4.85754
2360 1 0.307977 3.79181 5.11289
127 1 2.80194 3.51645 4.88339
126 1 1.77446 3.86997 4.94006
130 1 3.79524 3.66599 5.30015
129 1 4.38604 2.93306 5.3193
431 1 5.46878 3.54746 5.55798
760 1 6.83148 3.17459 5.00068
432 1 5.75138 3.65819 4.59583
667 1 8.19475 3.3691 5.65938
829 1 7.51049 4.15082 5.317
761 1 8.85692 3.86924 4.85132
748 1 9.87502 3.61613 4.60336
671 1 11.0545 3.55358 4.84178
778 1 10.3005 3.88992 5.5565
1075 1 12.2346 3.3784 4.53203
1167 1 12.7396 4.13147 5.16268
1014 1 12.0496 3.02542 5.43287
983 1 14.1209 2.97253 4.71675
1081 1 13.1234 3.00606 4.87948
1079 1 13.7319 4.24097 5.09343
1080 1 14.4152 4.11915 4.46443
1134 1 15.1681 3.46311 4.87976
1381 1 16.2928 3.68579 4.59593
1404 1 16.0559 3.08045 5.62146
1420 1 17.3065 4.07959 4.37333
1742 1 18.229 3.53304 5.29088
1411 1 17.374 3.19343 4.85598
1311 1 19.8655 3.20423 4.7955
1731 1 19.0306 4.12543 4.90365
1752 1 19.2041 2.89236 5.66148
1732 1 19.9674 4.20918 5.28738
1650 1 21.0069 3.78962 5.00083
1649 1 20.5864 3.34036 5.70629
1729 1 22.3006 3.32148 4.53494
1730 1 22.032 3.69174 5.34253
1624 1 23.4769 2.87245 5.18783
1627 1 23.4543 3.25665 4.32362
2046 1 24.1472 4.05015 5.48492
2041 1 22.9685 4.12845 5.3455
1946 1 24.7028 3.29059 4.93234
2049 1 26.6371 3.41153 5.58054
1966 1 25.7779 4.09736 5.50171
1965 1 25.845 3.31678 4.91745
2050 1 27.055 4.18258 5.25459
2281 1 27.4061 2.93739 5.0752
2365 1 27.644 4.25746 4.39583
2366 1 28.1774 3.63973 4.87725
2285 1 28.5347 2.97682 5.57048
200 1 29.1359 4.15751 4.33506
2441 1 29.3633 2.94294 4.75473
203 1 0.493645 5.64763 4.30011
2369 1 0.961047 4.55586 4.32134
124 1 0.667687 4.77825 5.20539
123 1 1.1864 5.63455 5.04801
592 1 2.39672 5.33483 5.04398
191 1 2.95332 4.5462 5.14911
116 1 3.92585 4.72827 5.16988
591 1 3.24112 5.70201 5.07441
441 1 4.9399 5.18896 4.36981
115 1 4.87242 4.53838 5.28115
522 1 4.95269 5.63828 5.48706
348 1 6.79412 4.81745 4.88458
827 1 7.6815 5.22898 5.67333
830 1 8.17364 4.60111 4.83011
503 1 7.50714 5.62976 4.66234
751 1 8.94849 5.04629 4.45579
752 1 9.85481 4.716 4.39575
749 1 8.77268 5.30538 5.68289
750 1 9.41703 4.60404 5.36002
846 1 10.247 5.56779 4.91222
757 1 11.0244 4.63117 4.39646
1094 1 11.2314 4.79599 5.56435
1168 1 12.1003 4.76788 4.77504
1059 1 14.2054 5.61177 4.5004
1189 1 13.1815 5.11974 4.81597
1097 1 14.9447 4.83549 5.37574
1098 1 15.7266 4.49034 5.01369
1475 1 16.7754 5.00197 4.87871
1496 1 15.9393 5.55686 5.25304
1463 1 17.6221 5.1418 4.3448
1397 1 17.5712 4.5183 5.34497
1398 1 18.3378 5.02641 5.07249
1725 1 19.3893 4.97078 5.58359
1799 1 19.8409 5.57813 4.67275
1701 1 20.2857 4.5831 4.40729
1702 1 20.6697 4.97094 5.1798
1723 1 21.4191 5.67541 5.60997
1714 1 21.5372 4.59004 4.65555
2042 1 22.5472 4.3979 4.48951
1739 1 22.5138 5.69588 5.59342
1962 1 23.5995 4.49633 4.39405
1961 1 23.1571 5.21881 4.70802
2025 1 24.8298 4.89174 5.35991
2026 1 24.7108 5.05663 4.44222
2128 1 25.6087 5.53536 5.15172
2367 1 26.0737 4.73264 4.68183
2368 1 26.9577 5.10859 4.73886
2465 1 28.1475 4.70293 5.26267
2436 1 27.7399 5.61496 5.70189
117 1 29.6946 4.78461 5.13563
193 1 28.7829 5.34696 4.88725
138 1 0.422444 6.60393 5.04596
137 1 1.1459 6.37902 5.6276
284 1 2.08125 6.26542 4.85985
283 1 2.80644 6.73918 5.26084
201 1 1.57372 7.06724 4.8684
499 1 3.97318 6.87736 4.43891
183 1 2.93664 6.52416 4.30001
219 1 4.07 6.30334 5.40448
511 1 5.53113 7.03978 4.34089
509 1 4.94324 6.72702 5.30995
514 1 6.17968 5.75784 4.88625
513 1 6.93155 6.30865 5.33561
1064 1 8.329 6.09294 5.05555
1063 1 7.85081 6.8301 5.40366
917 1 8.34573 7.1298 4.52751
845 1 9.32761 5.94717 4.89308
831 1 9.86676 6.8763 5.12421
835 1 10.8105 6.42691 4.71807
1156 1 11.2638 6.53187 5.63051
836 1 11.4642 5.7258 4.71324
1169 1 12.0575 6.61676 4.70029
1153 1 12.6297 5.81031 5.43156
1190 1 13.1667 6.07073 4.70888
1252 1 13.1615 7.04866 5.14059
1255 1 13.9928 6.70583 5.6359
1072 1 15.6163 5.91553 4.36552
1177 1 14.8007 6.30886 5.06225
1476 1 16.7855 5.84287 4.36493
1499 1 16.0861 6.54839 5.18174
1495 1 16.8713 5.75947 5.55124
1485 1 17.2059 6.66245 4.98893
1421 1 18.4705 6.85315 5.01899
1486 1 17.7257 5.86442 5.05139
1478 1 18.8924 5.83912 5.29111
1796 1 19.4023 6.55049 4.49661
1790 1 20.7812 5.93063 4.83204
1800 1 20.094 5.77138 5.54157
1801 1 20.1662 6.96434 5.08549
1787 1 21.5587 6.67014 4.30934
1883 1 21.6599 6.64701 5.56828
1788 1 21.7971 5.81706 4.63034
2114 1 22.4905 6.52038 4.93755
2117 1 23.592 6.27098 4.83439
2127 1 24.8347 6.10119 5.03565
2129 1 24.9496 6.72506 4.33439
2111 1 25.9701 6.21651 4.40485
2140 1 26.8647 6.7075 5.32631
2133 1 25.7844 6.86651 5.39434
2445 1 27.9588 6.81459 4.58278
2038 1 27.9457 5.83595 4.75116
2446 1 28.3863 6.38102 5.40469
118 1 29.8607 5.7184 5.04724
113 1 29.6513 6.9614 5.59858
2437 1 29.2032 6.49331 4.63342
293 1 0.768328 7.66199 4.4278
214 1 0.327803 8.27515 5.09141
2308 1 2.15522 7.84933 5.28025
515 1 3.81223 7.90117 4.48024
35 1 3.13222 7.76666 5.31028
269 1 4.17451 7.81621 5.46886
36 1 3.13421 8.55052 4.73251
516 1 4.70572 8.20427 4.33902
510 1 5.22669 7.64082 5.15333
582 1 6.42407 7.47046 5.1525
916 1 7.01313 8.36446 5.65357
603 1 7.21776 8.49573 4.44982
918 1 7.35734 7.35503 4.56969
920 1 8.16324 8.02895 4.99496
1173 1 9.58579 7.96676 4.89245
833 1 8.97785 7.34853 5.38135
921 1 10.848 7.38192 5.08276
1174 1 10.1104 8.22371 5.61077
685 1 11.0354 8.32744 4.8753
1234 1 12.6144 7.54985 4.34831
1242 1 12.1656 8.30063 5.13494
1159 1 14.2614 7.17167 4.65449
1467 1 13.2174 8.12909 4.93201
1541 1 14.1548 8.53092 5.10473
1542 1 14.7045 8.41407 4.30937
1145 1 15.6674 7.50523 4.51544
1576 1 14.3686 7.65625 5.59443
1146 1 15.2131 7.20297 5.31446
1564 1 15.571 8.46698 5.11966
1563 1 16.1153 8.51853 4.29717
1559 1 17.0822 7.66664 5.28775
1560 1 16.174 7.66613 5.65961
1498 1 17.6234 8.53086 5.1503
1805 1 18.3528 7.93186 5.57377
1894 1 19.2868 7.49064 5.06012
1903 1 18.9425 8.57076 4.92937
1492 1 20.1232 8.16146 5.70994
1491 1 20.3593 8.25368 4.75349
1863 1 21.1891 7.52279 5.24964
1864 1 21.4978 8.30662 4.70996
2108 1 22.3275 7.56104 4.46383
2197 1 23.9456 8.0802 4.98061
2198 1 23.2863 7.37221 4.83702
1885 1 22.8953 8.15199 5.39793
2130 1 25.6924 7.26002 4.52171
2202 1 24.6803 7.3987 5.36368
2451 1 25.8455 8.49783 5.24127
2443 1 26.7217 7.75131 5.05106
2444 1 27.6241 7.9431 4.85163
2203 1 27.9166 7.3901 5.68958
209 1 28.7032 7.48171 4.78512
2439 1 29.3358 8.48629 5.39184
211 1 29.785 7.6192 4.47404
2292 1 0.541062 9.76762 4.78761
44 1 1.06631 8.89314 5.04774
43 1 0.523471 9.31041 5.70414
34 1 1.64261 9.90195 4.7502
33 1 2.10038 9.18157 5.23122
359 1 3.13598 9.65166 4.78577
59 1 3.98435 8.96522 5.70037
261 1 4.37574 9.95663 4.88883
600 1 4.74811 8.85569 5.07196
599 1 5.29127 9.37714 4.48194
604 1 6.96039 9.39715 4.29043
598 1 6.04482 8.67386 4.4786
368 1 6.19485 9.62853 5.11696
367 1 7.08494 9.31089 5.381
597 1 5.82639 8.70884 5.37541
585 1 8.00888 8.96991 5.41522
583 1 8.92647 9.85166 4.60455
914 1 9.17484 8.90633 4.95237
924 1 8.71598 9.67846 5.63998
913 1 10.119 9.2281 4.89583
1223 1 11.7704 9.37119 5.38032
1224 1 11.9069 9.11576 4.38855
1236 1 12.8303 9.29431 5.16702
1245 1 13.8153 9.26188 4.34376
1247 1 14.4621 9.44208 5.34308
1315 1 15.1569 9.3212 4.65746
1316 1 15.5553 9.71058 5.49391
1579 1 16.6923 9.15144 5.39671
1580 1 16.5814 9.59261 4.5782
1904 1 18.4047 9.33965 4.67194
1561 1 17.5607 9.77244 5.13303
1887 1 19.8612 9.66861 4.45631
1888 1 19.9652 9.06576 5.247
1895 1 19.2965 9.91675 5.47806
1872 1 20.835 9.25717 4.50918
1890 1 21.0573 8.65813 5.55146
1637 1 22.3452 9.16636 4.59371
1643 1 21.7641 9.61764 5.31129
1638 1 22.7835 9.19407 5.44056
2189 1 24.1574 8.95248 4.32428
1949 1 23.5404 9.6985 4.93126
1950 1 23.8128 8.97234 5.50192
2512 1 24.7191 9.49733 5.65068
2452 1 24.8737 8.60662 5.23013
2511 1 25.5334 9.40954 5.20049
2517 1 26.4911 9.0428 4.53228
2119 1 26.6299 8.98692 5.67789
1975 1 27.2175 9.61053 4.97044
2458 1 28.4126 8.88525 4.76989
2120 1 27.5873 8.63902 5.69536
2527 1 28.84 9.89127 4.42632
2291 1 29.6876 9.30002 4.77636
300 1 0.652843 0.475136 5.87758
2377 1 0.284527 1.08929 7.03572
40 1 1.60505 1.32254 5.79662
70 1 2.30317 0.58314 6.39996
364 1 4.0279 0.00542677 5.95119
67 1 4.12623 0.745755 6.69678
374 1 5.55733 1.17075 6.57978
363 1 4.72902 0.603994 5.7444
373 1 5.93469 0.625532 5.84437
618 1 6.9746 0.257386 5.81392
323 1 7.10137 1.30825 6.93742
622 1 8.0348 0.770981 6.47829
681 1 8.84737 0.939741 5.98801
698 1 9.72352 0.128486 6.74556
674 1 10.7067 0.677276 6.55402
1238 1 12 1.21461 5.77098
1572 1 12.6922 0.666554 6.63004
1571 1 13.6982 0.819277 6.61839
1322 1 14.5459 0.278443 6.69078
1332 1 14.7998 1.18935 5.8676
1331 1 15.3217 1.07712 6.71226
1323 1 16.6296 0.12375 6.45444
1333 1 16.2558 1.398 6.54801
1661 1 17.3999 0.748735 5.86848
1662 1 17.1896 0.86693 6.8116
1897 1 18.1821 0.707029 6.67369
1657 1 19.9389 0.648592 5.79372
1898 1 19.0906 0.204225 6.53873
1655 1 19.8287 1.30665 6.63513
1720 1 20.816 1.17785 6.20264
1737 1 21.2896 0.0783274 6.71139
1738 1 20.3438 0.282188 6.63559
1647 1 21.684 0.87974 5.81214
2210 1 22.2494 0.6865 6.80331
1980 1 21.476 1.1822 7.09822
1954 1 23.2256 0.719585 6.39886
2224 1 24.1748 1.01187 6.93405
1922 1 24.4164 0.288125 6.20542
2223 1 25.0584 0.570875 7.09199
1978 1 25.9506 0.907823 6.72721
2531 1 26.0806 0.0165281 7.12281
2242 1 28.1354 1.00344 6.87088
2241 1 27.3697 0.713412 6.41632
299 1 29.8656 1.0033 6.02806
2283 1 29.7607 0.0204247 6.66606
301 1 0.365431 2.04088 6.0378
302 1 1.02841 1.69861 6.65492
143 1 1.0426 2.65516 6.70077
48 1 2.05588 2.42032 6.22113
69 1 2.07185 1.45538 6.91976
62 1 2.96503 1.86084 6.25593
197 1 3.80648 2.78099 6.18876
365 1 4.53133 1.82297 6.50087
438 1 5.69628 2.06263 6.10331
198 1 4.81723 2.69195 6.2488
324 1 6.6898 1.46535 6.12434
759 1 6.85808 2.56159 5.77008
792 1 6.85921 2.40428 6.84946
689 1 8.3199 1.86882 6.81429
684 1 7.68564 1.56529 6.03673
668 1 7.83527 2.79056 6.35464
690 1 8.72528 2.27992 6.07598
641 1 9.74051 1.57442 6.47467
673 1 11.0831 1.47265 6.42971
642 1 10.3072 2.37565 6.51096
1070 1 12.7906 1.89042 6.59286
1013 1 11.6062 2.47067 6.0826
678 1 13.3838 1.57454 5.74952
1069 1 13.5567 2.52273 6.70681
1021 1 14.1819 1.74713 6.68593
1089 1 15.4991 2.25105 6.3044
1334 1 16.555 2.11504 5.98453
1320 1 17.9877 2.12774 5.94326
1366 1 17.2025 1.89929 6.74818
1326 1 18.8713 2.21374 6.52459
1410 1 19.8926 2.5104 6.33509
1409 1 20.7513 2.27231 6.69922
1636 1 22.4904 1.59137 5.80702
1986 1 21.8116 2.5834 6.62281
1653 1 23.0417 2.38025 6.24902
1957 1 23.7493 2.79606 7.00435
1951 1 24.09 1.72284 6.03716
1646 1 23.0393 1.6593 6.91582
1952 1 25.0463 1.46441 6.07146
1972 1 24.8704 2.27339 6.76667
1974 1 25.9946 1.79382 6.1183
2373 1 27.0919 1.79608 6.46452
1967 1 26.0039 2.82113 6.44891
2286 1 27.8546 2.27838 5.73798
2374 1 27.1882 2.72283 6.42596
2310 1 28.2939 2.1962 7.00325
2303 1 28.8446 1.4412 5.89134
2383 1 29.3376 2.74691 6.23629
141 1 0.986761 3.35831 5.87836
142 1 0.159149 3.50471 6.2549
150 1 1.22009 3.77686 6.91158
125 1 2.32072 4.0272 5.74472
47 1 1.95131 3.34533 6.44624
51 1 2.91425 3.22257 6.00988
52 1 2.92046 3.21162 7.06022
457 1 3.72192 3.90595 6.41411
458 1 4.50237 3.46133 6.86913
440 1 6.41395 3.94267 5.71787
449 1 6.05209 3.12544 6.53875
456 1 6.98788 3.43387 6.52296
694 1 8.46464 4.01885 6.70157
762 1 9.22391 3.55336 5.72055
675 1 8.76655 3.11656 6.95149
783 1 9.75634 3.41401 6.61951
777 1 10.9465 3.76831 6.22619
1096 1 12.5089 2.98438 6.94218
771 1 11.9926 3.96899 6.12833
1161 1 14.0403 3.08366 5.76648
1082 1 13.0101 3.00141 5.85672
1172 1 13.2742 4.16214 6.54451
1150 1 14.027 3.59921 7.02725
1133 1 15.0935 3.65689 5.80879
1149 1 14.6229 2.88865 6.68436
1506 1 14.9078 4.25897 6.96273
1418 1 15.6773 2.97337 7.08897
1412 1 17.1067 2.94403 5.74267
1084 1 16.3319 3.61963 6.49114
1164 1 16.5608 4.24988 5.73497
1083 1 16.9683 3.50741 7.13787
1163 1 17.3332 3.87361 6.19501
1751 1 18.529 3.28344 6.22955
1427 1 17.898 3.08484 7.07518
1670 1 19.322 3.15746 6.82173
1726 1 19.1735 4.09014 5.91897
1664 1 21.1457 4.22396 6.26198
1688 1 20.0926 3.86678 6.71855
1690 1 21.1606 3.41674 6.8152
1689 1 22.0429 3.61868 6.42082
1970 1 24.2628 3.0419 5.97905
1969 1 23.3744 3.41669 6.0606
1958 1 23.0545 3.44269 7.06593
2064 1 23.8947 3.96186 6.80966
2045 1 24.914 3.97725 6.05598
2063 1 24.7685 3.48757 7.0218
2137 1 26.7063 3.48811 6.83846
2138 1 25.808 3.83041 6.74958
2372 1 27.584 3.68171 6.01904
2381 1 28.3934 4.23046 6.85488
2382 1 28.2985 3.33465 6.72109
2384 1 29.2669 3.61158 5.77441
149 1 1.24325 4.45619 6.15235
2454 1 0.0834745 4.45124 6.02656
134 1 0.646886 5.28301 6.38114
133 1 0.44583 4.55179 6.90459
547 1 2.61342 4.3745 6.80991
469 1 2.58861 5.37094 6.63775
236 1 1.77948 5.2916 5.80246
192 1 3.08461 4.82895 6.02439
518 1 4.09383 4.82277 6.59922
517 1 4.89838 4.37171 6.38247
521 1 5.09546 5.33757 6.40856
439 1 5.80423 4.68966 5.79388
763 1 6.73378 5.27201 5.81793
464 1 5.90108 4.51864 6.88602
764 1 6.21588 5.48824 6.58887
455 1 7.29632 4.33953 6.33621
693 1 8.4601 4.33312 5.81799
443 1 7.80775 5.17875 6.76951
769 1 9.55456 5.16142 6.28126
765 1 8.98963 4.86085 7.02324
770 1 10.0985 4.43991 6.6896
1103 1 11.1792 5.00082 6.68212
1093 1 11.7109 5.5653 5.80656
772 1 12.3707 4.87993 6.32439
1104 1 11.8534 4.55806 7.11983
1171 1 13.3953 4.8442 5.87698
1192 1 13.8216 4.82329 7.02056
1505 1 14.3332 4.38605 6.19085
1191 1 14.5282 5.50764 6.89338
1501 1 15.6137 5.24836 6.94239
1414 1 15.7278 4.62435 6.1883
1413 1 16.6013 4.99094 6.33414
1665 1 17.9539 5.40197 5.98397
1666 1 18.1611 4.47775 6.16577
1423 1 17.5825 5.275 7.13094
1686 1 19.863 4.95834 6.58201
1405 1 18.8575 4.8497 7.03609
1663 1 20.723 5.08687 6.17786
1754 1 21.9649 4.79116 6.81832
1753 1 21.923 4.78156 5.79941
1684 1 23.0389 4.95113 6.89363
1963 1 23.47 4.89585 5.95109
2054 1 23.9352 5.37151 6.93375
1964 1 24.3683 4.72503 6.34591
1722 1 24.7814 5.70989 6.13605
2043 1 25.5232 4.89452 6.29732
2044 1 25.049 4.7139 7.11178
1811 1 26.1898 4.76325 7.0535
1812 1 26.4759 4.35456 6.19098
2449 1 26.6875 5.41664 5.91152
2371 1 27.4006 4.53622 6.46073
2466 1 28.7224 4.73191 6.03163
2453 1 29.4756 4.37116 6.76448
114 1 0.0421611 6.32747 6.09449
235 1 1.52108 5.75248 6.67218
206 1 2.24571 6.3075 6.01458
220 1 4.05714 5.99069 6.31261
205 1 3.13122 6.47969 6.24724
285 1 3.78275 6.97865 7.13628
839 1 5.00641 6.53882 6.32957
840 1 5.78068 6.17995 5.85803
608 1 6.57615 6.74829 6.3617
849 1 7.07422 6.02531 7.02764
828 1 7.60316 6.09776 6.06558
526 1 7.92914 6.88225 6.65446
832 1 9.7247 6.14703 5.83564
851 1 8.69199 6.31937 5.98226
852 1 8.70255 5.7679 6.77414
822 1 9.38999 7.06445 6.35175
922 1 10.6008 7.12991 5.98417
843 1 10.6251 5.85757 6.18432
844 1 10.4371 6.45924 6.99317
1155 1 11.6179 6.30066 6.56056
1154 1 12.3484 6.60325 5.81931
854 1 12.5554 6.94397 6.77571
1182 1 12.6673 5.79604 6.52606
1181 1 13.6017 6.02992 6.61601
940 1 13.6886 7.07093 6.9978
1178 1 14.8905 5.91064 5.94585
1256 1 14.5387 6.98424 6.34837
1415 1 15.5757 6.90796 6.42647
1416 1 15.9952 6.07379 6.151
1507 1 16.9773 6.06543 6.66342
1500 1 16.7195 6.80733 5.90027
1508 1 16.2611 6.59029 7.02418
1744 1 17.7732 6.35367 5.97938
1743 1 18.1284 6.5259 6.84168
1823 1 17.1745 7.10936 6.84571
1422 1 18.75 6.76066 6.02329
1802 1 19.9746 7.04865 6.09464
1477 1 19.0728 5.79638 6.23896
1826 1 19.175 6.5885 6.85713
1735 1 19.9846 6.10867 6.723
1724 1 20.959 6.0732 6.3307
1740 1 22.1985 5.88239 6.52514
1879 1 22.2651 6.86109 6.7024
1721 1 23.9422 5.80931 5.72758
2113 1 22.977 6.63265 5.74999
2053 1 23.4333 6.14213 6.94708
2116 1 24.0809 6.63227 6.18364
2149 1 24.2621 7.10076 7.04989
2134 1 25.7025 6.17319 6.08949
2115 1 24.9864 6.88635 6.22925
2450 1 26.6525 6.09437 6.58176
2139 1 26.4157 7.07262 6.11283
2435 1 27.5487 6.40563 6.16185
216 1 28.4831 6.00462 6.51386
215 1 29.1781 5.82414 5.90392
2204 1 28.6317 6.99374 6.1348
213 1 0.505561 7.56897 5.76956
224 1 1.39993 7.44198 6.37027
222 1 0.247104 7.16573 6.84353
218 1 0.0642702 8.04377 6.49831
223 1 2.12493 7.88779 6.90912
227 1 2.58567 7.32709 6.16721
2307 1 1.47871 8.27357 5.83213
295 1 2.58436 8.41538 6.08309
270 1 4.0112 7.25362 6.26679
228 1 3.1172 7.82464 6.76426
60 1 4.06939 8.4064 6.50938
611 1 4.95094 7.84937 6.31445
581 1 6.1211 7.87684 6.02649
607 1 5.88837 7.26129 6.80447
927 1 6.63837 8.30636 7.05693
928 1 6.97194 7.46239 6.99155
915 1 7.4258 7.54933 6.0063
586 1 8.04665 8.34029 6.21989
834 1 9.12528 8.07012 6.02283
821 1 9.80728 7.8194 6.66863
857 1 8.63067 7.70969 7.02518
936 1 11.3203 8.0078 5.84922
935 1 10.8359 7.99599 6.71321
1251 1 12.5406 7.56455 5.72198
853 1 11.9288 7.6656 6.5086
1266 1 13.5274 8.54166 5.99684
1166 1 14.2507 8.00133 6.98763
1265 1 13.1163 7.87096 6.62417
1335 1 15.4357 8.01812 6.70404
1575 1 14.7655 8.4567 5.95634
1588 1 16.631 7.98971 6.49233
1806 1 17.7681 7.48594 6.15509
1494 1 17.696 8.50997 6.39607
1825 1 19.1704 7.49794 6.98711
1816 1 18.6213 8.34384 6.54887
1603 1 19.7527 8.41259 7.05186
1793 1 21.078 7.46521 6.25188
1794 1 20.6621 7.69768 7.05422
1884 1 22.1128 7.47727 5.7694
1889 1 21.9272 8.47656 5.78487
1875 1 21.7594 8.36431 6.88948
1886 1 22.7363 8.03346 6.28992
2195 1 23.5733 8.56985 6.78608
1786 1 23.5596 7.64033 5.83284
1785 1 23.2948 7.21553 6.69963
2201 1 24.4437 8.0864 6.06144
2207 1 25.4898 7.73852 6.13805
2141 1 25.0724 8.08469 7.0411
2302 1 26.8587 8.02888 6.15514
2301 1 26.4111 8.28432 6.93466
2440 1 28.5167 8.35489 5.9731
2455 1 27.2733 7.21067 6.6911
217 1 29.191 7.79203 6.57547
2525 1 1.35018 8.71548 6.74242
2312 1 0.977145 9.96907 6.84727
2516 1 0.362517 9.0092 6.84504
315 1 1.83045 9.6152 6.06988
316 1 2.04783 9.65826 6.97722
296 1 2.80712 8.86403 6.9037
50 1 3.11378 9.35396 5.9933
388 1 3.37053 9.8647 6.97299
355 1 4.94418 9.20643 5.95603
623 1 4.88771 8.94644 6.95658
356 1 5.22795 9.99264 6.45499
624 1 5.74812 8.70318 6.68186
945 1 6.18635 9.72428 6.69979
946 1 6.7345 8.99417 6.31036
617 1 7.61927 9.72904 6.30266
838 1 9.03369 8.72651 6.83045
923 1 9.54922 9.18366 5.84898
697 1 8.7854 9.98198 6.82671
837 1 9.99549 8.92434 6.76794
1012 1 11.3311 9.80891 6.57901
669 1 10.5243 9.74133 5.73603
670 1 10.8414 8.86158 6.08606
1241 1 12.3685 8.6116 5.99558
1568 1 12.3837 9.64839 6.6743
1487 1 13.3864 9.80956 6.98939
1488 1 13.3457 9.70595 6.02122
1258 1 15.3009 9.04967 7.04753
1257 1 14.3795 9.03309 6.80507
1324 1 15.7079 9.97061 6.47774
1493 1 16.9425 9.09411 6.43661
1336 1 15.955 8.7462 6.25978
1581 1 17.5377 9.75271 6.92736
1582 1 18.0009 9.83948 6.05306
1819 1 19.8323 9.3355 6.38101
1815 1 18.8585 9.10121 5.99936
1891 1 18.8971 9.22302 7.0521
1820 1 20.6216 8.82027 6.58616
1644 1 21.915 9.37993 6.22122
2196 1 22.8416 9.06034 6.42911
1921 1 24.0365 9.96103 7.02098
2209 1 22.8638 9.92872 6.94511
1953 1 23.4564 9.87617 6.11944
1984 1 25.4361 9.97396 6.26341
2208 1 25.3511 8.72332 6.16045
2125 1 25.2535 9.18604 7.10688
2126 1 24.5102 9.10858 6.53469
2532 1 26.4669 9.92669 6.21894
2216 1 26.8729 9.3941 7.06589
2297 1 28.5279 9.66011 6.1048
2521 1 27.4776 9.65925 6.14455
2522 1 27.7731 8.93976 6.6707
2298 1 28.4016 9.83313 7.03436
2294 1 29.5369 9.57994 5.79578
2515 1 29.4566 8.78681 6.85352
66 1 1.2872 1.02815 8.53151
2305 1 0.301169 0.866738 8.44389
2311 1 1.45319 0.726571 7.27266
74 1 2.23924 0.79488 8.01912
1 1 3.02181 1.32938 7.21487
2 1 3.49599 0.679317 7.79227
453 1 5.6833 1.26092 8.25126
605 1 4.73809 0.809716 7.80845
371 1 5.44314 0.129504 7.55953
372 1 6.21282 0.647115 7.39013
390 1 6.75891 0.475007 8.3302
621 1 8.11893 0.56798 7.4798
704 1 8.40835 0.766212 8.48653
699 1 9.42505 0.152654 7.95596
679 1 9.11912 1.30742 7.51086
1018 1 10.0978 1.04224 7.3829
696 1 10.0606 0.888585 8.54962
933 1 10.8028 0.232054 8.30577
1011 1 11.8305 0.365296 7.16919
1261 1 11.542 0.869803 7.90338
1087 1 12.4436 1.32473 7.40473
1591 1 13.0077 0.393857 7.83774
1337 1 14.0708 0.0428059 8.54465
1009 1 15.4441 0.23844 7.56228
1023 1 14.4442 0.942285 7.74761
1010 1 16.1429 0.91656 7.50813
1349 1 17.8336 0.555021 7.69889
1899 1 19.7045 0.622009 7.55815
1656 1 20.4872 1.34316 7.34511
2220 1 21.354 0.960062 8.07755
1652 1 20.2541 0.705912 8.42365
1694 1 22.3549 1.21003 8.52841
2219 1 22.1314 0.439927 7.80061
2218 1 23.1132 0.737733 7.58242
2217 1 23.5933 0.0215943 7.93991
1993 1 24.2924 0.866546 8.04376
1994 1 25.0339 0.227009 8.10091
1990 1 25.849 0.875198 7.99493
1977 1 26.7091 1.23409 7.23292
1924 1 26.7098 1.00774 8.47199
2530 1 27.9541 0.61422 7.97861
2529 1 27.6074 1.41599 8.33453
1997 1 29.1507 0.909754 8.21789
2378 1 0.887351 1.57148 7.67527
2399 1 0.0753697 2.37002 7.2697
81 1 1.02294 2.65373 7.89432
82 1 0.476757 2.22638 8.52371
75 1 2.73294 2.17468 8.40554
144 1 1.88943 2.59038 7.26639
76 1 1.84651 1.81659 8.20637
68 1 4.01969 1.48016 7.30876
307 1 3.41457 2.37297 7.41957
79 1 3.96174 1.47857 8.43477
366 1 4.9736 1.82105 7.37325
450 1 5.4964 2.78646 7.22665
308 1 4.31932 2.46473 7.71174
707 1 6.68697 1.77732 7.97732
708 1 6.05253 1.9127 7.33239
452 1 6.03267 2.49795 8.15393
702 1 7.93742 2.50668 7.69503
703 1 8.43884 1.71256 8.27077
767 1 7.19138 2.40027 8.54217
676 1 9.2486 2.41578 7.2551
680 1 9.43371 1.87496 8.16923
1116 1 8.82716 2.83466 8.4557
1017 1 10.9494 1.58027 7.41745
1092 1 11.0517 2.78038 8.02174
1268 1 11.3489 1.80925 8.48661
1006 1 10.0381 2.65175 8.46987
1263 1 12.0921 2.28586 7.75006
1088 1 12.3165 1.43401 8.3637
1022 1 13.5874 1.48566 7.47624
1024 1 14.0304 1.45075 8.45763
1264 1 13.0069 2.30815 8.04982
1016 1 13.9048 2.83611 7.68066
1015 1 14.4666 2.03371 7.76986
1028 1 15.4933 1.8764 7.46974
962 1 15.0476 2.73031 8.2752
1027 1 15.2621 1.60172 8.40391
1365 1 16.5107 2.24387 7.28874
1345 1 16.3031 2.01782 8.24231
1346 1 16.958 1.51089 7.85289
1667 1 18.1273 1.64254 7.72304
1428 1 17.4022 2.84316 7.75074
1325 1 18.7006 2.53551 7.43067
1906 1 19.9023 1.92688 8.2022
1668 1 18.8915 1.4879 7.33905
1905 1 19.6473 2.09704 7.25301
1747 1 20.4138 2.78778 7.58944
1700 1 21.0547 1.94664 8.09416
1979 1 22.0563 1.71973 7.62754
1645 1 22.7593 2.46642 7.31739
1996 1 22.4077 2.3523 8.37416
2214 1 24.1562 1.90722 7.57536
2213 1 24.1677 1.98512 8.50874
2056 1 23.1504 1.67982 7.98107
1971 1 25.1662 1.60999 7.49003
1981 1 25.5008 2.44155 8.43817
2075 1 25.2347 2.7685 7.49132
1968 1 26.1922 2.2031 7.21486
1923 1 26.4712 1.84237 8.19343
2380 1 27.0456 2.6618 8.45705
2379 1 27.2831 2.45854 7.5021
1998 1 28.6593 1.82235 8.33888
2309 1 28.9365 2.78372 7.49501
2400 1 29.5688 2.41499 8.08305
72 1 1.35026 4.25608 8.27306
2472 1 0.272318 3.25489 7.90609
160 1 2.06089 2.9572 8.19064
159 1 2.14779 3.66914 7.56937
548 1 3.32715 4.0636 7.48281
524 1 4.10535 3.47511 7.93541
405 1 3.12459 3.56358 8.49185
523 1 4.99599 3.86725 8.09019
463 1 6.07335 3.80469 7.39947
791 1 7.02072 2.95953 7.53273
877 1 7.01857 4.15999 7.42581
378 1 5.98896 3.44546 8.50953
701 1 7.90194 3.41562 7.41231
784 1 9.38167 3.60184 7.5152
774 1 8.69382 3.85085 8.56263
1105 1 10.64 3.79579 7.32417
1095 1 11.5732 3.20242 7.2731
1091 1 11.5221 3.67212 8.17105
1099 1 13.1087 3.39526 7.70436
1512 1 14.1478 3.97394 7.9349
1511 1 14.8689 3.468 7.57873
1378 1 15.4703 3.96236 8.55813
1436 1 16.5206 3.16122 8.04995
1417 1 15.927 3.84815 7.44296
1518 1 17.4756 3.87932 8.29014
1517 1 18.3129 3.77219 7.92778
1748 1 19.6007 3.23072 7.82036
1669 1 19.0545 3.94499 7.29261
1284 1 19.7519 4.1527 8.53863
1682 1 21.0268 3.89374 7.72652
1681 1 20.6682 3.32772 8.43082
1985 1 21.5926 2.87624 7.55381
1755 1 22.4434 4.17981 7.67615
2059 1 21.8573 3.54862 8.29005
2060 1 22.7952 3.49026 8.55497
2071 1 23.9826 3.34669 8.29482
2093 1 23.4425 4.2488 8.18217
2072 1 24.4235 4.15951 7.92778
2057 1 25.6959 4.15897 7.86513
2076 1 26.139 3.21716 7.72346
2058 1 26.6054 4.16791 8.06581
2061 1 27.5225 3.4677 7.55646
2393 1 28.0944 2.8803 8.29221
2471 1 29.628 3.36093 7.14772
145 1 28.5892 3.77063 7.95949
2324 1 29.6475 4.27628 7.74873
2323 1 0.308136 4.89033 7.93159
140 1 1.03337 5.56914 8.26501
147 1 2.59393 4.94892 7.62324
148 1 1.7386 4.6015 7.35423
136 1 2.10747 5.15897 8.48107
153 1 4.20329 4.54615 7.69964
154 1 3.73303 5.33217 7.44506
533 1 4.9819 5.28359 7.45467
528 1 5.12951 5.23274 8.51658
527 1 5.86491 4.84172 8.08008
878 1 6.91981 4.42009 8.39895
850 1 6.64094 5.3954 7.5567
773 1 8.47325 4.29188 7.76145
444 1 7.63466 5.10008 7.73317
766 1 8.77203 5.38742 7.76703
848 1 9.60352 4.57578 7.77521
847 1 10.0516 5.3581 7.32138
1106 1 10.8821 4.6523 7.59703
787 1 10.9268 5.58779 8.15087
1108 1 12.1669 5.68344 7.3381
1107 1 12.187 5.07636 8.11339
1100 1 12.8035 4.31133 7.53427
1176 1 13.2041 5.31605 7.79653
1020 1 13.1853 4.52866 8.53977
1117 1 14.4306 5.64885 7.96117
1118 1 14.8477 4.74201 8.05685
1426 1 15.8224 4.77571 7.87839
1425 1 16.7162 4.45802 7.58118
1502 1 16.4152 5.55766 7.33733
1042 1 15.8437 5.68616 8.24411
1361 1 17.0621 5.26757 8.26945
1424 1 17.8743 4.31338 7.24008
1439 1 18.1766 4.91269 8.04156
1406 1 18.5466 5.69462 7.32783
1440 1 19.0875 4.80826 8.0874
1685 1 19.865 5.32601 7.48008
1687 1 20.0423 4.29897 7.53017
1746 1 20.8338 4.76822 7.15636
1745 1 20.7544 4.83534 8.08512
1749 1 21.6721 5.69192 7.77292
1756 1 21.8068 4.75272 8.07364
1683 1 22.7743 5.29978 7.74147
2136 1 24.4145 5.44752 7.91352
2004 1 25.4816 5.13783 8.19422
2074 1 25.579 5.68558 7.35995
2048 1 26.6568 5.29427 7.91928
2047 1 27.5081 5.49098 7.60347
2062 1 27.675 4.39312 7.5189
2476 1 28.3618 5.60494 8.05351
146 1 28.5033 4.62173 8.32598
2375 1 29.7177 5.57681 7.14903
2376 1 28.8878 5.0651 7.26436
2461 1 0.719658 6.80709 8.09635
2462 1 0.705975 6.31803 7.23443
470 1 2.81071 5.99818 7.26524
139 1 1.69805 5.79145 7.66751
174 1 2.32605 6.23379 8.28492
231 1 2.52189 7.06641 7.63851
232 1 1.61232 6.81159 7.32055
540 1 3.34701 6.29656 7.9965
519 1 4.20974 6.21214 8.51552
286 1 4.57281 6.48137 7.40347
534 1 5.60504 6.01163 7.47877
609 1 5.49525 6.95454 7.75239
535 1 5.90453 6.0687 8.5058
610 1 6.48165 6.74779 7.70302
560 1 7.47971 6.28266 8.11361
525 1 8.20655 6.32235 7.37713
1184 1 9.75126 6.09194 8.2641
1183 1 9.68042 7.09508 8.41072
858 1 9.09681 6.90413 7.38279
932 1 11.2761 7.04687 7.33048
931 1 11.5295 6.48172 8.04531
1187 1 12.569 7.10846 8.49833
1175 1 13.0004 6.24985 7.75916
1193 1 13.4551 7.10482 8.08258
1041 1 15.2948 6.13579 7.5846
939 1 14.3797 6.63736 7.46031
1253 1 15.007 6.62474 8.45969
1509 1 16.4063 6.7608 8.08428
1429 1 17.4628 6.28386 7.56863
1430 1 18.0229 5.97797 8.24651
1851 1 19.1957 5.89086 8.21241
1831 1 18.5911 6.82285 7.84036
1736 1 19.8691 6.4737 7.60973
1750 1 20.8449 5.84362 7.37191
1803 1 21.3712 6.78937 7.24319
2083 1 20.057 6.13212 8.54621
1809 1 20.5574 7.03576 8.09002
1804 1 22.1972 6.60667 7.69757
2135 1 24.0189 6.34526 7.86282
1814 1 23.2284 7.05245 7.81907
2073 1 24.9296 6.31066 7.19598
2152 1 25.089 6.25619 8.50883
2156 1 26.0921 7.13497 8.35942
2456 1 26.542 7.10907 7.18636
2086 1 26.2017 6.19463 8.17896
2154 1 27.9449 6.63817 7.26415
2153 1 27.1723 6.54484 7.82004
2463 1 29.7144 5.81631 8.21854
2475 1 28.7733 6.2669 7.5569
221 1 0.886077 7.74976 7.26576
311 1 0.516854 8.04046 8.15869
161 1 1.55019 7.78162 8.05774
318 1 3.86377 8.08172 7.67013
539 1 3.43163 7.21281 8.36269
317 1 2.95223 8.13678 7.79375
612 1 4.80487 7.58357 7.23957
619 1 4.46713 7.30173 8.25649
298 1 4.84174 8.39334 7.87623
297 1 5.75823 8.04774 7.70119
876 1 6.93413 7.76902 8.04188
614 1 7.76845 8.20762 7.4945
948 1 8.2845 8.22152 8.31058
875 1 7.70475 7.28668 7.77857
929 1 8.69518 7.22405 8.23071
692 1 9.37824 7.8975 7.63861
691 1 10.2127 7.57238 7.68263
942 1 11.273 8.39129 8.18864
869 1 10.8806 7.43371 8.4343
1244 1 12.0292 8.38991 7.22011
870 1 11.7307 7.5311 8.09479
1274 1 12.7834 7.84637 7.69724
1179 1 13.4842 8.54005 7.43788
1165 1 14.9586 8.2378 7.62272
1344 1 15.4032 7.16332 7.54066
1343 1 15.9705 7.99246 7.55346
1584 1 16.6105 8.0517 8.43202
1824 1 17.958 7.56182 7.27442
1510 1 17.2174 7.24906 7.92477
1587 1 17.1572 8.22499 7.29523
1910 1 18.7316 8.2371 7.91225
1832 1 19.3063 7.30182 8.12793
2147 1 21.2986 7.61152 7.82077
1828 1 20.0812 7.99754 8.04409
1880 1 22.4872 7.50982 7.30328
2225 1 22.2703 8.19344 8.28256
1760 1 22.1611 7.14613 8.5702
2150 1 24.0289 7.75111 7.68182
2143 1 23.38 8.50605 8.31976
2142 1 25.4837 7.24082 7.16552
2221 1 24.9478 7.3938 8.17399
2227 1 25.8841 8.50079 7.80414
238 1 27.907 7.78506 7.33202
2299 1 27.3081 8.44145 7.83275
2300 1 28.0227 8.03062 8.3746
237 1 28.7937 7.56171 7.62588
2408 1 29.8209 7.20711 8.45615
312 1 29.8334 7.76813 7.54738
2289 1 0.474391 9.64279 7.96892
2290 1 1.42249 9.88854 7.84462
63 1 2.67223 9.82447 8.01577
2526 1 1.57601 8.71789 7.66656
55 1 3.52631 9.25786 7.91752
387 1 4.31617 9.79806 7.30485
379 1 5.53756 9.15438 7.68246
629 1 4.68141 9.72285 8.38648
380 1 6.42002 9.5932 7.83255
626 1 7.32261 8.91059 8.27187
613 1 7.46009 9.11867 7.17049
687 1 8.42084 9.22015 7.77898
947 1 9.06132 8.6996 8.51803
688 1 9.39979 9.0852 7.6235
1243 1 11.2599 8.99097 7.26537
700 1 10.2102 9.86013 7.55499
941 1 10.47 8.76839 7.83602
1567 1 12.473 9.43316 7.60674
1004 1 11.7118 9.90092 8.23242
1273 1 12.5681 8.59346 8.33424
1180 1 13.3741 9.31463 8.1457
1321 1 14.428 9.7401 7.4976
1594 1 15.0699 9.67465 8.46593
1593 1 15.4622 8.80406 8.43107
1342 1 16.2806 9.00487 7.77282
1341 1 16.4655 9.89213 7.49822
1912 1 17.4872 8.68815 8.16252
1350 1 17.4381 9.70395 7.98583
1911 1 17.9975 8.93405 7.42346
1892 1 18.9617 9.82607 7.79151
1604 1 19.5871 8.87072 7.9041
2148 1 21.0879 8.58468 7.75937
1900 1 20.1921 9.79864 7.61809
2229 1 21.1133 9.79308 8.13414
1876 1 21.786 9.3021 7.27463
2232 1 22.2206 9.36084 8.26322
2231 1 22.8679 9.12461 7.52087
2205 1 24.1527 9.01624 7.82633
2206 1 25.0224 8.96473 8.24557
2215 1 26.8555 9.95416 7.82668
2484 1 25.868 9.68696 8.14581
2487 1 27.8423 9.40712 7.75241
2284 1 29.4516 9.65267 7.51777
2488 1 28.6775 9.52745 8.23336
2524 1 28.6524 8.67664 7.48812
2523 1 29.4681 8.66733 8.01018
3 1 0.567477 0.545 9.77067
65 1 0.941333 0.156715 8.83083
306 1 1.48983 0.955899 9.47972
11 1 2.45411 0.85128 9.60744
64 1 2.16845 0.0658546 8.82319
73 1 2.94048 0.934045 8.74064
639 1 3.47358 0.670846 9.97974
6 1 3.73461 0.105433 8.84282
77 1 4.0882 1.3663 9.46416
606 1 4.66308 0.804912 8.73429
386 1 5.44309 0.923735 9.44162
385 1 5.61759 0.231942 8.87931
712 1 7.14143 1.33916 8.80568
384 1 6.49957 0.886722 9.85892
389 1 7.2009 0.129116 9.09034
926 1 8.16629 0.0568119 9.47786
715 1 8.99829 0.656165 9.3193
1025 1 10.9261 0.942755 9.16875
1038 1 10.343 0.181096 9.83203
1026 1 11.234 0.00477092 9.16979
1262 1 11.8279 0.737253 8.79644
1592 1 13.081 0.725289 8.76534
1355 1 14.0004 0.66935 9.31585
966 1 13.0653 0.159728 9.72496
1030 1 12.9519 1.27869 9.93064
963 1 15.6987 0.563937 9.4797
1338 1 14.8903 0.65886 8.61378
964 1 15.0391 1.20418 9.49698
1577 1 16.0476 0.694328 8.62831
1357 1 16.7568 0.33763 9.48675
1329 1 18.0892 1.04055 8.6766
1330 1 17.2413 0.623907 8.58308
1358 1 17.7133 0.500317 9.63679
1758 1 19.3332 0.58422 9.00752
1618 1 18.7274 1.04592 9.867
1676 1 20.3369 0.687007 9.62641
1651 1 21.0755 0.480098 8.91104
1901 1 22.4924 1.14804 9.64921
2092 1 22.163 0.216417 9.13683
2238 1 23.1967 0.686787 8.58497
1915 1 22.8646 0.0927839 9.91326
2237 1 23.6024 0.809332 9.46023
1991 1 24.5919 0.968754 9.65225
1999 1 25.134 0.202338 9.20848
1989 1 25.3286 1.33685 8.63096
1935 1 26.1543 0.445197 9.7808
2483 1 26.4856 0.0142061 8.77415
2321 1 27.5146 1.04923 9.30814
2481 1 28.4206 0.984521 8.92714
2270 1 28.6008 0.882393 9.92104
2269 1 29.5407 0.950752 9.61611
2306 1 29.7678 0.0989691 8.81096
2482 1 28.7518 0.0794856 9.13507
157 1 1.37059 2.45902 8.99148
305 1 0.649269 1.49483 9.25355
478 1 2.2558 2.75377 9.30555
80 1 3.79189 2.47238 8.62405
395 1 3.01957 1.81126 9.51528
396 1 3.44782 2.66298 9.62846
454 1 5.09126 2.01201 8.61167
465 1 5.13002 1.82106 9.82521
472 1 4.61749 2.50389 9.3545
451 1 5.82807 2.5458 9.10267
383 1 6.21637 1.65812 9.33187
711 1 7.98205 1.4466 9.23532
950 1 7.42255 2.22237 9.76956
768 1 7.94906 2.76873 8.9968
713 1 9.26099 1.90147 9.25849
695 1 10.2639 1.71075 9.17219
1267 1 11.6814 1.66449 9.35826
1036 1 12.0972 2.49006 9.85153
1035 1 11.6005 2.72598 9.03107
1102 1 13.9474 2.40942 8.79771
1101 1 13.144 1.98384 9.0936
1340 1 13.9624 1.72288 9.66631
1044 1 13.0415 2.84974 9.87324
1339 1 14.649 2.34443 9.64775
1363 1 15.6519 2.5449 9.97819
1432 1 16.8529 1.50163 9.16483
1364 1 15.7749 1.93471 9.25754
1302 1 16.5341 2.56008 9.16195
1367 1 17.6036 2.53581 9.79153
1368 1 17.878 1.60193 9.52385
1431 1 17.3566 2.0912 8.58789
1285 1 18.5473 2.2893 8.6902
1757 1 19.2079 1.55443 9.0228
1606 1 19.8211 1.55255 9.73586
1286 1 18.5915 2.55998 9.58898
1610 1 19.5135 2.64503 8.89761
1605 1 20.4311 1.59557 9.00954
1696 1 20.4242 2.61001 9.89255
1699 1 21.0472 2.50347 8.85833
1693 1 21.6064 1.66186 8.96566
1995 1 22.4728 2.73298 9.21256
2055 1 23.2299 1.66747 8.92937
1902 1 22.8604 2.05241 9.82623
2069 1 23.3768 2.63845 8.85132
1992 1 24.0115 1.73723 9.84817
1982 1 24.9049 2.44442 9.14946
2008 1 25.5804 1.47949 9.92626
2080 1 26.7401 1.91404 9.2002
2079 1 25.9224 2.41673 9.49766
2322 1 27.6121 1.79778 9.83138
2390 1 27.6157 2.74248 9.28787
2243 1 28.5683 1.90879 9.56811
2249 1 29.6955 1.71415 8.81595
2250 1 29.745 2.52858 9.30561
158 1 0.795438 3.01572 9.6349
90 1 0.816514 3.55442 8.70887
132 1 0.030912 3.98154 9.03565
89 1 1.61825 3.54261 9.22231
416 1 2.5961 3.71547 9.5026
545 1 3.92723 3.55463 9.30408
471 1 4.99386 3.0735 8.65819
546 1 4.61145 4.11549 9.01053
543 1 5.35387 3.51978 9.54046
377 1 6.32229 4.03554 9.21603
468 1 6.60336 3.09932 9.61721
531 1 7.65196 3.77221 8.71727
786 1 7.43946 3.66331 9.94971
798 1 8.49471 3.48435 9.86881
1115 1 9.30915 3.31155 9.1304
1005 1 10.2633 2.9498 9.40754
1110 1 10.485 3.721 8.72905
855 1 10.5917 4.06243 9.69848
1058 1 12.0992 3.51388 9.6911
1019 1 12.4741 3.88252 8.63258
1047 1 13.0149 4.02329 9.59799
1031 1 14.0637 4.15767 9.00343
1032 1 13.5501 3.41495 8.69695
1051 1 14.0437 3.36771 9.85335
1437 1 15.1637 3.77212 9.8059
961 1 14.7193 3.28346 8.96917
1377 1 15.7813 3.20767 9.12352
1835 1 16.3039 4.09278 9.56981
1435 1 16.5364 4.02485 8.57339
1295 1 17.7673 3.67986 9.75476
1301 1 17.2757 3.11055 9.0592
1296 1 18.6924 3.55757 9.92322
1294 1 19.6863 3.52047 9.4767
1609 1 18.8062 3.32354 8.81087
1695 1 20.7529 3.58125 9.84553
2067 1 21.6679 4.12989 9.98552
2068 1 21.7055 3.57575 9.29504
1940 1 22.6433 3.68064 9.60994
2070 1 23.6692 2.94887 9.6579
2088 1 23.7132 4.0343 9.52587
2077 1 25.1926 3.44732 8.57842
2012 1 24.6703 3.6789 9.68547
2387 1 25.6997 3.72636 9.43943
2388 1 26.2113 3.50911 8.71079
2389 1 26.8275 3.25596 9.61521
2394 1 28.1245 3.69238 8.85765
131 1 29.2499 3.58857 8.87308
71 1 1.101 4.72324 9.05655
2464 1 0.181261 5.60985 9.0963
83 1 1.30232 5.42359 9.87773
2396 1 1.88995 4.67023 9.71303
226 1 2.80286 5.27529 9.60464
406 1 2.96355 4.48383 8.69619
135 1 2.96071 5.54574 8.59204
485 1 3.40748 4.38994 9.78078
551 1 4.00176 5.1724 9.26964
530 1 5.43783 4.6447 9.50299
529 1 6.15127 5.20611 9.29611
785 1 7.55847 4.4761 9.59025
532 1 7.91495 4.70359 8.62423
790 1 8.44371 5.453 9.09841
776 1 9.67253 4.2982 8.96458
795 1 8.69168 4.34737 9.47924
789 1 9.40421 5.42653 9.37027
775 1 9.92606 5.1839 8.58189
856 1 10.5518 5.01754 9.47953
1109 1 11.1003 4.51253 8.68848
1129 1 11.5498 4.68443 9.72377
1199 1 12.3296 5.53343 9.88289
788 1 11.5882 5.64624 8.87818
1130 1 12.3084 4.9057 9.20205
1111 1 13.5429 5.43297 9.01256
1112 1 13.717 4.90793 9.78047
1446 1 15.6138 5.38571 9.77454
1445 1 15.3043 4.71036 9.19759
1362 1 16.5098 5.07004 9.05562
1520 1 17.5684 5.31046 9.33506
1836 1 17.1991 4.33299 9.27572
1433 1 18.2323 4.75668 9.89853
1434 1 18.1779 4.34824 9.0174
1845 1 19.9884 5.49958 9.65868
1283 1 19.1058 4.53991 9.22212
1379 1 18.7309 5.66114 9.50155
1763 1 21.1356 5.36741 9.89878
1370 1 20.0286 5.06846 8.72145
1369 1 20.5318 4.46181 9.27905
1939 1 22.4288 4.36279 8.9922
1834 1 22.1345 5.05526 9.77339
1833 1 21.5219 4.79535 9.04099
2145 1 22.6285 5.44987 8.88848
2094 1 23.8711 4.79368 8.70407
1761 1 23.2311 4.7986 9.96373
2146 1 23.4728 5.67439 9.16989
2087 1 24.2815 4.79172 9.67093
2078 1 24.9396 4.32817 8.92979
2001 1 25.557 4.66096 9.81484
2151 1 24.7269 5.40789 8.9499
2329 1 26.822 4.66557 9.45864
2003 1 26.0172 4.61073 8.80679
2330 1 27.8 4.44547 9.522
2467 1 27.5759 5.11853 8.7212
2468 1 28.2558 5.47796 9.26067
86 1 29.3895 5.03606 9.65787
85 1 29.5304 4.89502 8.65402
2404 1 0.834358 6.50307 9.63014
230 1 1.83083 6.97412 9.33536
173 1 1.81451 5.93959 9.12326
225 1 2.60303 6.25667 9.71182
552 1 3.59625 6.03349 9.49215
520 1 4.07064 6.91901 9.14915
632 1 3.37661 7.05554 9.85455
536 1 5.17949 6.6025 8.8957
627 1 5.16057 5.76494 9.65486
954 1 6.16697 7.06834 8.73373
871 1 6.82096 6.22999 9.5316
872 1 5.89006 6.46989 9.65678
538 1 7.77899 6.69705 9.57691
930 1 8.3985 6.42479 8.63419
474 1 7.78133 5.72556 9.92116
559 1 7.44978 5.74954 8.891
554 1 9.1738 6.53508 9.47822
842 1 10.7066 6.2952 8.87191
841 1 10.2941 5.99973 9.73383
1276 1 10.2785 7.05159 9.42189
866 1 11.8398 6.59089 9.2067
865 1 12.6075 6.12049 8.74766
1196 1 13.3512 5.85737 9.98553
1194 1 13.6401 6.46895 8.76497
1530 1 14.1175 7.03298 9.67755
1195 1 13.1464 6.73082 9.58039
1596 1 15.3653 7.04092 9.3615
1120 1 14.5718 5.78244 9.05943
1046 1 16.3534 6.82641 9.40173
1045 1 16.7619 6.10277 8.97559
1830 1 17.8868 6.38666 9.38234
1852 1 18.9123 6.49459 8.94474
1846 1 19.9918 6.49443 9.4831
2084 1 20.9885 5.88286 8.59292
1810 1 21.1517 7.04831 8.84872
1817 1 21.8846 5.99363 9.41665
1818 1 22.6722 5.8602 9.95612
1759 1 22.5524 6.86371 9.40827
1813 1 22.9258 6.50256 8.57498
2132 1 24.0903 7.06063 8.59568
2131 1 23.695 6.70929 9.37553
2182 1 24.5633 6.0442 9.98775
2421 1 25.6712 5.78135 9.92476
2157 1 24.5581 7.13214 9.69868
2416 1 26.665 5.93178 9.86384
2155 1 26.2463 6.56744 9.13024
2085 1 27.045 5.97411 8.6421
2406 1 27.018 6.91845 9.96275
2470 1 28.0617 6.4563 8.74497
2469 1 29.0267 6.26591 8.8381
2494 1 28.7586 6.87724 9.63137
2478 1 29.8705 7.10627 9.51544
2477 1 0.668133 7.33469 9.00917
249 1 0.51787 8.20376 9.5138
250 1 1.32194 7.77103 9.78142
162 1 2.08663 8.30713 8.70107
229 1 2.45749 7.30828 8.66288
234 1 2.30209 8.19648 9.87722
310 1 3.11554 8.00578 9.21553
631 1 3.97149 7.78156 9.9208
620 1 4.10444 7.94167 8.93339
541 1 5.04031 7.45029 9.62652
601 1 5.36912 7.8898 8.68559
542 1 4.79676 8.36567 9.53924
953 1 6.26815 8.05252 8.81859
558 1 6.79131 7.45001 9.47779
557 1 7.08598 8.3313 9.18965
397 1 5.84975 8.52092 9.6241
537 1 7.5103 7.17043 8.76001
959 1 8.04334 8.18783 9.45333
960 1 8.50989 7.34255 9.39241
937 1 9.46033 7.7117 9.25441
882 1 11.0116 7.79177 9.39048
881 1 10.3372 8.15523 8.84989
1033 1 12.2604 7.5911 9.62991
1034 1 12.6169 8.46157 9.67467
1188 1 13.2293 7.67915 8.93841
1516 1 14.1078 8.08421 9.43279
1595 1 15.6375 7.4789 8.61918
1254 1 14.4984 7.41557 8.72297
1586 1 15.2972 8.13199 9.32246
1597 1 16.6012 7.86476 9.55326
1503 1 17.5861 7.60485 9.41426
1909 1 18.4808 7.68424 8.59769
1504 1 17.6198 8.54861 9.40961
1514 1 19.1787 7.29816 9.581
1908 1 18.6537 8.25037 9.66702
1822 1 19.5018 7.97218 8.89256
1821 1 20.3479 7.58054 9.28457
1842 1 21.8908 7.46671 9.9152
2226 1 21.6153 8.31899 8.99837
2239 1 22.8765 7.89669 9.87978
2144 1 23.0468 7.73043 8.82497
2081 1 23.786 8.26488 9.48112
2222 1 24.5714 8.18846 8.688
2158 1 25.3645 7.46741 9.19484
2492 1 26.923 8.18826 8.75685
2405 1 26.4994 7.51724 9.36354
2228 1 25.9228 8.33167 8.71074
2490 1 26.0082 8.56162 9.96793
320 1 27.769 7.4344 9.50157
2485 1 28.7144 7.24217 8.58663
2486 1 28.8131 7.86277 9.28806
2407 1 29.7047 8.07029 8.81476
2480 1 0.264832 8.89106 8.77151
314 1 1.53831 9.85486 9.70104
313 1 1.46765 9.05271 9.20801
233 1 2.4818 9.10967 9.73036
56 1 2.99806 9.09746 8.72065
392 1 4.1808 9.66287 9.74796
5 1 3.05968 9.95124 9.4968
309 1 3.64466 8.70922 9.51477
602 1 5.56608 8.87311 8.64036
630 1 4.32744 8.9341 8.77518
327 1 5.15803 9.4498 9.54686
328 1 6.08588 9.63098 9.71207
561 1 6.5587 9.14449 8.83402
562 1 6.96757 9.2002 9.66635
625 1 7.77824 9.21564 9.01541
925 1 8.68849 9.73009 8.75994
716 1 9.40469 9.9027 9.43647
938 1 9.60186 8.68616 9.41449
893 1 8.64669 9.086 9.6043
934 1 10.342 9.57689 8.81005
1037 1 10.2267 9.27887 9.97327
1003 1 12.5733 9.82326 8.65941
1272 1 11.6283 9.04637 9.06312
1590 1 13.5879 8.97547 9.15112
1515 1 14.4927 8.83952 8.92753
1351 1 14.7801 9.78734 9.48902
1352 1 15.548 9.28085 9.55049
1523 1 16.6721 9.22258 9.81395
1583 1 16.4246 8.85514 8.95622
1578 1 16.525 9.86309 8.66278
1546 1 18.4079 9.57629 9.68307
1674 1 18.3196 9.99064 8.69421
1907 1 18.5296 8.70465 8.80194
1673 1 17.5428 9.55596 9.03035
1602 1 19.5937 8.85742 9.4262
1601 1 19.1622 9.4882 8.84864
1827 1 20.3953 8.653 8.62688
2230 1 21.3096 9.28733 8.97676
1680 1 20.7312 9.78635 9.75776
1679 1 20.2557 9.67799 8.93135
2091 1 21.7906 9.69783 9.82479
1929 1 23.8545 9.60537 9.76514
2082 1 22.9965 8.83598 9.57113
2212 1 23.2872 9.75818 8.95112
2211 1 24.2458 9.48212 8.78116
2000 1 25.6255 9.43304 9.26883
1928 1 26.5958 9.26317 9.57407
2491 1 26.9328 9.09997 8.57987
2320 1 27.5005 9.96239 9.70001
244 1 27.7023 9.99137 8.70326
243 1 27.9045 9.10644 8.90389
2479 1 29.3994 9.08945 8.90108
2418 1 29.1345 8.92402 9.92692
247 1 29.766 9.7111 9.79544
ITEM: TIMESTEP
14000
ITEM: NUMBER OF ATOMS
2532
ITEM: BOX BOUNDS pp pp pp
0.0000000000000000e+00 3.0000000000000000e+01
0.0000000000000000e+00 1.0000000000000000e+01
0.0000000000000000e+00 1.0000000000000000e+01
ITEM: ATOMS id type x y z
4 1 0.920956 0.2429 0.581955
7 1 2.20157 1.08536 1.36107
8 1 1.96332 0.705689 0.490619
403 1 4.20049 1.27516 0.912194
640 1 3.17228 0.495239 0.894141
376 1 4.29265 0.12474 0.817608
461 1 5.32725 0.130897 0.796728
404 1 5.13263 1.26594 0.804713
375 1 4.75573 0.539834 0.0877421
944 1 6.53355 0.177301 0.546187
705 1 6.65056 1.17028 0.91475
706 1 7.41049 0.588236 1.15481
949 1 7.48803 1.38005 0.185131
943 1 7.36774 0.319626 0.0566959
720 1 8.37566 0.858413 0.495818
719 1 9.20901 0.380639 0.413144
1039 1 9.71977 1.21452 0.0113553
1040 1 10.6684 1.3078 0.152929
890 1 10.1557 0.805425 0.996683
1209 1 11.5877 0.223273 0.172211
974 1 12.1223 1.08437 0.464356
662 1 11.6714 0.531578 1.36851
973 1 12.0882 1.39865 1.36273
965 1 13.4331 0.341111 0.593619
1029 1 13.0945 1.25196 0.879213
1289 1 14.1108 0.969232 1.39705
1356 1 14.3765 0.550444 0.21903
1211 1 15.1606 0.0470112 1.07713
1282 1 15.8071 0.944705 0.591157
1543 1 17.1795 1.07749 0.298736
1298 1 17.6942 1.26793 1.25001
1617 1 18.2294 0.695245 0.652348
1544 1 17.3298 0.135003 0.517862
1843 1 19.2481 0.131842 0.146407
1613 1 19.2863 0.424957 1.14334
1614 1 19.3744 1.3405 1.10314
2065 1 20.2731 0.52403 0.70875
2066 1 21.1492 0.060446 0.685784
1675 1 21.0073 1.12348 0.241233
1916 1 22.3268 0.248764 0.704744
1612 1 21.5258 1.24052 1.23739
2009 1 23.2435 1.06201 0.404799
2236 1 23.954 0.549306 1.01166
2235 1 24.5784 1.31382 0.935537
1988 1 25.4645 0.867309 0.714828
1987 1 26.396 0.670564 0.980175
1936 1 26.8386 1.06345 0.13813
2496 1 27.6538 0.697139 0.649448
2495 1 28.2165 0.087288 1.22455
2246 1 29.4209 1.21432 0.5292
2245 1 28.7313 1.38801 1.17267
2265 1 29.1713 0.211125 0.558599
91 1 0.677452 2.08088 0.203827
12 1 2.13241 1.56499 0.0161746
14 1 1.51265 1.6919 1.06149
13 1 1.9455 2.55602 1.03936
477 1 2.52898 2.60166 0.228985
96 1 3.0963 2.51444 1.15772
330 1 4.28556 2.26727 1.14755
95 1 3.01623 1.6308 0.763675
78 1 4.09944 2.03582 0.18992
475 1 5.61278 2.28542 1.07241
466 1 5.09486 2.71118 0.265629
476 1 6.02962 1.92196 0.324387
651 1 6.75267 2.54081 0.796357
718 1 8.3922 2.69388 0.525547
731 1 8.00569 1.65143 1.06639
717 1 9.00554 2.16159 1.06225
733 1 9.68829 2.41101 0.0766313
714 1 8.80169 1.80531 0.0354551
800 1 10.7294 2.71237 0.566941
664 1 10.5827 1.76046 1.19598
969 1 12.5519 2.03461 0.63682
970 1 11.6128 2.089 0.699123
647 1 14.0331 1.9637 0.708412
1281 1 14.9661 1.43631 0.516221
1307 1 16.4236 1.92127 0.176055
1297 1 16.731 1.67253 1.26866
1308 1 15.7959 2.14199 0.877399
1461 1 16.7372 2.64578 0.872427
1387 1 18.5402 1.75157 0.582153
1388 1 17.7213 2.21315 0.784669
1384 1 19.1819 2.607 1.14467
1621 1 20.2336 1.81109 0.629645
1616 1 21.1963 2.48328 0.963709
1703 1 21.6035 1.93275 0.0676201
1704 1 22.2583 1.52837 0.656227
2010 1 23.4776 1.44279 1.22181
1678 1 24.0406 2.34429 0.781885
1934 1 22.9797 2.57725 0.679224
1677 1 24.6691 2.65207 1.37593
2007 1 25.6932 1.96405 0.773718
2023 1 24.8397 2.54431 0.120945
2253 1 26.6679 2.38629 0.324989
2254 1 27.0854 1.7419 0.915388
2248 1 28.0285 2.30889 0.677541
92 1 29.9238 2.65287 0.255721
16 1 29.734 2.04937 1.09815
2244 1 29.0769 2.14596 0.341641
2411 1 0.244093 4.11259 0.0813262
2395 1 1.23603 4.08695 0.110433
2397 1 0.855094 2.98649 0.782189
163 1 2.048 3.43629 0.467741
98 1 2.28779 3.4768 1.42156
415 1 3.13387 3.59927 0.363196
393 1 3.69835 3.37024 1.34097
394 1 4.00185 3.02032 0.445131
329 1 4.71668 3.01666 1.40479
544 1 4.97859 3.66575 0.456172
459 1 5.88878 4.2631 0.553609
417 1 6.01354 3.69308 1.38425
467 1 6.23032 3.32013 0.474768
722 1 7.76249 3.8237 1.35271
797 1 8.40077 4.17101 0.53141
734 1 9.70203 3.01372 0.913534
793 1 8.82163 3.42552 1.05111
859 1 9.54902 4.07696 0.166984
799 1 10.8381 3.65605 0.723116
1057 1 12.2987 3.98508 0.55662
740 1 12.075 3.2064 1.34699
1043 1 13.1929 2.9815 0.797226
1053 1 13.9468 3.59418 1.29111
1062 1 13.0552 4.02084 1.36053
1048 1 13.5244 4.17605 0.423222
1052 1 14.4839 2.91985 0.587162
1065 1 15.1611 4.0065 1.14723
1450 1 15.5747 3.11037 1.01501
1462 1 16.4196 3.24046 0.167882
1776 1 17.0745 3.90972 0.497551
1396 1 18.1561 3.17849 1.04504
1293 1 19.3956 2.93526 0.184696
1708 1 19.5245 3.8151 0.865075
1707 1 20.2984 3.22501 0.878495
1933 1 22.2393 3.04081 0.451279
1762 1 22.8013 4.05269 0.549382
1780 1 21.7067 3.54248 1.27461
2006 1 24.1359 3.35664 0.729943
2024 1 25.5933 2.94088 0.625721
2011 1 25.0174 4.01356 0.550822
2410 1 26.3431 4.07694 0.217528
2346 1 26.5591 3.28713 0.935405
2018 1 26.0311 4.2525 1.20956
2313 1 27.4623 3.20775 0.538457
2409 1 27.261 4.26686 0.480948
2314 1 28.1039 3.58146 0.0623796
2345 1 27.2344 3.69913 1.42654
2318 1 29.2125 4.15804 0.122081
2317 1 29.0215 3.59102 0.834876
2398 1 29.9609 3.08196 1.12394
2331 1 29.9618 4.11784 1.24296
2412 1 0.459472 5.02119 0.213377
88 1 1.168 5.00484 1.06344
164 1 2.38923 4.32138 0.70007
84 1 2.05741 5.4482 0.375957
156 1 3.18929 5.44886 0.549161
155 1 3.41967 4.53338 0.829917
481 1 4.27829 5.46443 0.494057
401 1 5.19831 4.76291 1.38316
628 1 5.46433 5.34849 0.422871
486 1 4.32882 4.36343 0.0722679
721 1 7.05217 4.36766 1.05294
549 1 6.52656 5.31456 1.32039
550 1 6.79408 5.44495 0.429602
460 1 6.69655 4.37391 0.122987
473 1 7.85376 5.06172 0.614133
867 1 8.81944 5.63849 1.21908
796 1 8.83958 5.00849 0.181382
802 1 11.2725 5.64564 0.153316
1186 1 10.6486 5.45414 0.996234
860 1 10.0821 4.80955 0.435317
1200 1 12.77 4.8561 0.349646
1221 1 11.7622 5.11488 0.877931
1114 1 13.7508 5.19446 1.0491
992 1 14.8625 5.05871 0.84774
1438 1 14.5751 4.36308 0.175927
1372 1 16.7503 4.93379 0.202173
991 1 15.8391 4.84353 0.835822
1452 1 16.9453 5.47905 1.1489
1451 1 17.0021 4.50104 1.24466
1519 1 17.5252 5.53356 0.212147
1775 1 17.8977 4.34025 0.840225
1380 1 18.9808 5.45761 0.407008
1698 1 19.8677 4.94739 1.10478
1697 1 20.1973 4.58379 0.330042
1691 1 21.1922 4.3663 1.01585
1692 1 20.906 5.25461 0.961244
2013 1 22.2359 4.60997 1.3061
1767 1 22.4351 5.65108 1.05522
2005 1 23.9314 4.31817 0.622741
2106 1 23.1736 4.99488 1.09733
2104 1 24.1639 4.9951 1.32555
2017 1 25.2275 4.74929 1.32493
2002 1 24.9453 5.19778 0.390779
2422 1 26.0243 5.28155 0.583811
2328 1 28.2547 4.37581 1.17544
2460 1 27.3432 4.76796 1.30669
2392 1 27.6387 5.43861 0.011453
2391 1 28.45 5.18617 0.395345
2332 1 29.6522 4.98197 0.880198
87 1 0.734329 5.82368 1.29223
2403 1 0.294975 6.25072 0.377124
152 1 0.727491 7.1043 0.463328
171 1 1.45994 6.31658 0.580538
175 1 2.46323 5.9852 1.14627
172 1 2.10658 6.90453 0.361562
176 1 3.11285 6.58293 0.666847
482 1 4.3155 6.41751 0.423368
487 1 5.39241 6.8319 0.647182
488 1 5.92981 6.14124 0.956042
563 1 6.75259 6.92434 0.464517
810 1 7.62667 6.48302 0.684725
868 1 8.62172 6.25429 0.482759
863 1 9.57652 5.82942 0.420707
806 1 9.23407 6.89259 1.25132
553 1 9.39222 6.92866 0.272496
864 1 10.2844 6.41686 0.698458
1123 1 10.9808 6.94884 1.16606
955 1 11.2903 6.81208 0.0582548
801 1 11.4613 6.15238 0.997838
956 1 12.2423 6.51864 0.272697
1143 1 13.0816 6.51451 1.1971
1529 1 13.9897 6.93647 0.589073
1113 1 14.1884 6.00367 1.25306
1119 1 14.6376 5.8831 0.0121211
1443 1 15.5128 5.93959 0.794556
1218 1 15.182 6.74932 0.380686
1131 1 14.9245 7.02713 1.33979
1444 1 16.3241 6.46541 0.813372
1371 1 16.5923 5.86896 0.00124241
1442 1 17.3896 6.58232 1.17378
1441 1 18.2333 6.18842 0.775018
1829 1 17.4826 6.76026 0.143723
1777 1 19.7256 6.00229 1.09235
1837 1 19.8659 7.07524 0.451058
1513 1 19.0895 6.46651 0.0283555
1840 1 21.2978 6.03299 1.39866
1839 1 21.2274 6.99659 1.14329
1764 1 20.5162 5.98595 0.39128
1841 1 21.6328 6.61761 0.280728
2105 1 23.4857 5.75111 0.45732
1849 1 23.0952 6.76323 0.870987
2096 1 24.2406 6.13289 1.24361
2181 1 25.0991 6.56426 0.720463
2415 1 27.0737 6.21827 0.676198
2185 1 25.9499 7.11742 0.195422
2186 1 26.1096 6.6477 1.00286
2401 1 28.0156 5.77239 1.30759
2423 1 27.6914 7.02373 0.759855
2493 1 28.1381 6.33246 0.0480876
177 1 28.746 6.61519 0.795408
2473 1 29.4165 5.96864 0.922978
2474 1 29.0977 6.04195 0.0190217
178 1 29.5733 7.01169 0.530682
151 1 1.23231 7.42227 1.2124
2504 1 0.708497 8.15765 0.501593
242 1 1.40601 8.4348 1.16918
246 1 2.21031 7.87342 0.822078
634 1 3.12287 8.44044 0.40536
633 1 3.25422 7.56071 0.898494
257 1 4.44949 7.32871 0.803938
258 1 4.28661 8.05211 1.42412
638 1 5.22064 8.25499 0.513505
398 1 6.03733 7.68084 0.0778177
381 1 6.92645 8.30025 0.176676
564 1 6.61207 7.7201 0.914113
958 1 8.37371 7.2508 0.78813
957 1 7.63955 7.54835 0.148706
657 1 7.81256 8.14066 0.929425
809 1 7.44798 7.24486 1.26196
902 1 9.38805 7.83668 1.09944
894 1 8.90141 8.20901 0.0631655
952 1 10.5179 7.99536 1.23091
1275 1 10.2358 7.80453 0.0537021
1280 1 11.5628 7.71177 0.639793
1279 1 11.5348 8.55893 1.07525
1354 1 13.0256 7.87271 0.737393
1353 1 13.9241 8.23598 0.846515
1217 1 14.8452 7.63317 0.442797
1232 1 14.8636 8.28901 1.33527
1521 1 15.8638 7.5493 1.09577
1598 1 16.7064 7.32776 0.348993
1525 1 16.5638 8.30301 1.06701
1585 1 15.8058 8.04536 0.0344021
1447 1 18.3925 7.37538 0.280266
1448 1 18.1286 7.28777 1.23779
1599 1 18.4719 8.18904 1.34457
1528 1 17.8709 8.25039 0.429111
1600 1 19.1828 8.03571 0.740358
1913 1 20.4451 7.81617 1.14471
1917 1 20.1017 8.20269 0.224061
1838 1 20.7879 7.21415 0.127751
1766 1 21.5587 8.23849 1.09642
1765 1 21.9981 8.43971 0.238578
1850 1 22.9289 7.5513 1.33369
2240 1 23.686 7.52515 0.127256
2159 1 23.6339 8.46204 0.645688
2160 1 24.3421 7.85739 0.870421
2163 1 25.1365 8.06327 0.164002
2315 1 25.8121 7.7836 1.23027
2489 1 26.4783 8.0104 0.590036
2424 1 26.9055 7.28067 1.25758
272 1 27.5958 8.01165 1.03278
267 1 28.394 8.00353 0.214618
319 1 27.2827 8.16594 0.00125054
268 1 28.9945 7.81163 1.03401
2503 1 29.9907 8.10141 1.07359
2417 1 29.55 8.11902 0.159967
240 1 0.0295444 9.88971 1.18265
241 1 0.616462 8.99122 1.05901
248 1 0.59796 9.32714 0.0350132
9 1 2.67531 9.62894 0.502343
245 1 2.29249 8.76394 1.08687
322 1 1.57374 9.50562 0.816347
321 1 1.50656 8.79799 0.215471
10 1 3.23611 9.27855 1.1725
462 1 5.6352 9.23487 0.999502
391 1 4.51619 9.09359 0.360495
573 1 4.35816 9.34205 1.36362
382 1 6.6099 9.09707 0.630609
891 1 7.52048 9.21592 1.06777
658 1 8.38166 8.7878 1.41346
650 1 8.5148 9.63279 0.721287
892 1 7.91869 8.89455 0.220921
649 1 9.22012 9.05264 0.435687
883 1 9.83617 9.77632 1.08981
1210 1 10.9838 9.74091 0.724635
951 1 10.4061 8.88465 0.985688
1203 1 12.8538 8.8191 0.881911
1259 1 12.2477 9.73712 1.0435
1260 1 12.2289 9.42505 0.154397
1271 1 11.435 8.6245 0.00744192
1204 1 13.6089 9.24403 1.33534
1589 1 13.7218 9.25543 0.056152
1347 1 15.3951 9.11101 0.659643
1348 1 14.6712 8.67398 0.188742
1212 1 14.489 9.48554 0.767329
1524 1 16.2902 9.94762 0.353018
1291 1 16.9809 9.61236 1.39138
1527 1 17.628 9.12672 0.184609
1844 1 19.8364 9.46251 0.415508
1545 1 18.7899 9.03922 0.378214
1847 1 19.063 9.44691 1.32229
1918 1 20.8534 8.85554 0.303456
1914 1 20.1014 8.71442 1.07694
2234 1 21.8457 9.29857 1.14887
2233 1 22.6515 9.29973 0.484588
1857 1 22.8493 9.83743 1.3818
1930 1 23.7293 9.44366 0.734098
1942 1 24.9717 9.78643 0.0428837
2164 1 24.5442 8.8288 0.279486
2316 1 25.6192 8.72709 1.06754
2319 1 26.9049 9.95814 0.418349
1927 1 26.7424 9.01372 0.575812
1941 1 25.7296 9.71866 0.666153
271 1 27.9561 8.92926 0.788357
2266 1 28.3567 9.91983 0.162935
239 1 29.7057 9.11098 0.833549
256 1 0.677253 0.461589 1.71929
119 1 0.692168 1.33647 2.10438
120 1 1.65467 1.08911 2.29835
19 1 1.63719 0.152515 1.70742
574 1 3.86666 0.120996 1.75447
266 1 3.00238 0.517262 2.35276
399 1 5.07251 0.022669 1.83753
412 1 5.63534 1.03903 2.45162
346 1 4.78366 1.05167 1.83743
400 1 6.00268 0.327812 1.55452
337 1 6.83307 0.927904 2.13348
578 1 6.29756 0.240786 2.61889
646 1 8.37814 0.75802 1.56093
568 1 7.72893 0.417418 2.39268
900 1 8.89918 0.372347 2.55972
741 1 9.74651 0.510295 2.12365
645 1 9.09497 1.37398 1.74889
661 1 11.2296 1.22146 1.84352
889 1 10.6861 0.264101 1.55697
655 1 10.625 0.595053 2.59204
987 1 11.5627 0.356806 2.31974
976 1 12.5403 0.763322 2.00593
967 1 13.9598 0.247218 2.31956
1288 1 14.9345 0.5788 1.92107
1287 1 15.7351 1.1157 1.69485
1555 1 16.5995 0.979613 2.32306
1565 1 16.9095 0.0372189 2.42815
1292 1 16.2858 0.184809 1.56467
1566 1 17.5123 0.33297 1.77033
1607 1 19.5012 0.925596 2.16397
1608 1 18.5772 1.19676 1.90442
1626 1 20.119 0.201607 1.65022
1611 1 21.1537 0.922463 2.03528
1622 1 20.3866 1.33507 1.45476
1882 1 20.3518 0.378226 2.76164
1858 1 22.2531 0.425215 1.83858
2172 1 23.2403 0.672362 2.01603
2171 1 23.9396 0.0579653 2.20041
2184 1 23.0404 0.0351176 2.84339
2161 1 24.5508 0.733382 1.80603
2019 1 25.6206 0.227609 1.82656
2020 1 25.3172 0.642289 2.60776
2261 1 26.7391 1.30296 1.82568
2262 1 25.8376 1.19987 1.64496
2271 1 26.9818 0.0946763 2.40039
2272 1 26.1069 0.00578153 2.82375
2333 1 26.4495 0.912318 2.76389
2349 1 27.7528 1.34077 1.5074
2350 1 27.8727 0.80727 2.32609
255 1 29.9035 0.960874 1.52553
288 1 29.1274 0.844677 2.32311
28 1 0.717588 2.27759 1.59888
2260 1 2.74564 1.93367 1.98938
37 1 1.76176 2.1494 2.29709
2259 1 3.58354 1.5885 1.77422
413 1 3.68093 2.52019 2.06969
345 1 5.00283 1.9164 1.80809
411 1 6.01027 1.45514 1.66718
333 1 5.82902 2.57737 2.00075
334 1 6.44261 2.53202 2.68659
652 1 6.93062 2.03835 1.56746
732 1 8.01064 2.50908 1.45081
816 1 7.66289 1.65409 2.32157
815 1 7.5589 2.59965 2.39591
659 1 8.58125 2.70551 2.38286
730 1 9.51525 2.42577 2.63524
779 1 11.3221 2.419 1.68097
729 1 10.1209 2.76779 1.94872
780 1 10.9219 2.05719 2.49991
663 1 10.0718 1.66018 2.01603
739 1 12.4728 2.34683 1.62054
908 1 12.1759 1.74911 2.56733
977 1 11.8135 2.72477 2.60306
648 1 13.7111 2.29062 1.52735
989 1 13.2781 1.77129 2.38104
990 1 14.1743 1.68065 2.75643
1067 1 12.8709 2.66054 2.78263
1050 1 13.8427 2.68953 2.44284
1290 1 14.5906 1.7843 1.5937
972 1 15.1944 1.62897 2.49826
971 1 15.3918 2.5082 2.57939
1299 1 16.2431 2.01048 2.34205
1455 1 16.9414 2.82396 1.92889
1300 1 16.9211 2.4542 2.8246
1556 1 17.3008 1.72161 2.07675
1395 1 18.0818 2.53174 1.77518
1306 1 19.0214 2.03697 2.43005
1632 1 20.0757 1.82315 2.42539
1706 1 21.0513 1.81753 2.84037
1615 1 21.0578 2.18941 1.85152
1303 1 20.2141 2.5058 1.67868
1374 1 22.0381 1.51264 2.46035
1937 1 21.911 2.54602 2.34397
1938 1 22.4181 2.29866 1.5826
1373 1 22.9686 1.63101 2.16871
1629 1 23.4684 2.68971 1.59086
2162 1 24.7661 1.59725 2.08677
1932 1 25.2709 2.48321 2.22109
2015 1 26.2268 2.28299 1.60217
2353 1 26.2023 2.69551 2.62842
2339 1 25.7223 1.73987 2.70988
2016 1 27.1617 2.5193 1.65541
2247 1 28.1531 2.25534 1.67335
2288 1 27.3352 1.83324 2.49099
15 1 29.3841 1.82485 1.96144
2342 1 28.7734 2.69768 2.38978
2341 1 29.0334 2.68766 1.43578
27 1 1.26458 3.02054 1.77535
2432 1 0.346303 4.12203 2.47035
105 1 2.84941 3.24395 2.57503
106 1 2.03378 3.7604 2.64857
97 1 2.97645 4.08098 1.79364
498 1 4.171 3.52458 2.35111
484 1 5.20619 2.86145 2.81131
402 1 5.06841 3.92903 1.806
332 1 5.93869 3.98861 2.85146
418 1 6.69889 3.06652 1.68748
746 1 7.9619 3.45496 2.55044
794 1 9.28042 4.225 1.48268
817 1 8.64201 4.22649 2.80364
660 1 9.29424 3.32744 2.09257
818 1 9.58916 4.25091 2.79504
723 1 10.265 3.76289 2.01794
744 1 10.8908 3.20365 2.57357
725 1 11.3248 3.9834 2.15775
1073 1 12.752 4.2517 2.31106
1049 1 13.997 3.62885 2.53958
1061 1 13.1484 3.21169 1.89971
1054 1 14.6928 3.15454 1.57124
1066 1 15.3353 3.76297 2.06027
1449 1 16.2564 3.55336 1.5012
1375 1 16.2844 3.35666 2.49327
1456 1 17.3345 3.58702 1.54803
1479 1 17.1495 4.16996 2.38489
1399 1 17.9895 3.3812 2.47115
1383 1 19.435 3.16106 1.88119
1459 1 19.4733 4.20347 1.81126
1386 1 19.3994 3.69558 2.83065
1460 1 20.3308 3.97027 1.52364
1304 1 20.5603 3.16225 2.3327
1874 1 22.8043 2.9543 2.74289
1779 1 21.4379 4.06005 2.03875
2034 1 22.8496 3.66407 1.87192
2033 1 22.27 3.84456 2.63007
2098 1 23.8046 3.89063 1.62581
2097 1 23.5822 3.99502 2.54389
1630 1 24.0717 2.94223 2.34681
2021 1 25.5479 3.37393 1.64312
2099 1 24.6989 4.07895 2.01378
2022 1 26.0024 3.94746 2.27196
2336 1 26.9573 3.7785 2.45862
2326 1 28.2827 3.47483 1.59406
2051 1 27.6727 2.96327 2.36274
2325 1 28.2211 3.77369 2.47859
2430 1 29.697 3.25702 2.10432
2429 1 29.1744 4.09648 2.10334
100 1 1.01454 4.86332 2.0894
99 1 0.113052 5.0553 1.86463
165 1 2.2466 4.78766 2.4951
166 1 2.3899 5.09652 1.56432
479 1 3.90828 4.71476 2.75052
507 1 4.12703 4.84461 1.75161
110 1 3.11004 5.41978 2.46289
508 1 4.67971 5.4351 2.25399
422 1 4.83027 4.40318 2.65644
635 1 5.72844 5.38206 2.06831
430 1 6.77553 5.19087 2.3445
636 1 6.02243 4.50836 1.94152
727 1 7.55284 5.34428 1.49929
429 1 7.42656 4.43208 2.22026
728 1 8.37703 4.81638 1.52534
807 1 9.85269 5.06984 1.83127
1136 1 9.13565 5.32158 2.65353
724 1 10.5835 4.45956 1.44588
1185 1 11.1888 5.52715 1.79282
808 1 10.5064 4.78393 2.46627
726 1 11.6572 4.69085 2.59616
1222 1 12.1575 5.13042 1.74404
1197 1 14.025 4.7874 2.65834
1198 1 14.246 4.63925 1.75521
1138 1 12.9105 5.64396 2.71171
1465 1 15.0679 5.27637 1.97055
1471 1 15.9532 5.61809 1.59313
1472 1 16.6357 5.29849 2.20852
1457 1 15.7871 4.85088 2.57642
1533 1 17.866 5.27138 1.52911
1534 1 17.5691 5.09564 2.32576
1470 1 18.5001 5.69335 2.63615
1469 1 19.1203 5.41572 1.9758
1728 1 18.6048 4.50501 2.16625
1711 1 21.1975 4.96777 1.85798
1393 1 20.342 4.72435 2.37239
2014 1 22.8032 4.65904 2.05994
1712 1 21.9892 5.39169 2.16842
2103 1 23.8653 4.99458 2.27503
2110 1 24.9876 5.07327 2.33363
2459 1 27.0628 5.25144 2.03398
2090 1 26.1105 5.709 1.55764
2109 1 25.9459 5.02483 2.48528
2327 1 28.1572 4.78877 2.00624
2402 1 28.8418 5.66518 1.87847
186 1 29.4131 4.84944 2.75852
170 1 0.446583 6.84106 1.47358
2425 1 1.28372 5.88089 2.19853
169 1 0.326898 6.26262 2.23364
2426 1 1.64397 6.53594 1.58181
168 1 2.60714 7.1259 1.6313
263 1 2.1878 6.31648 2.63398
182 1 3.71578 6.8594 1.48345
109 1 2.99161 6.24867 1.96109
181 1 3.98088 5.96206 1.42941
492 1 4.17378 6.50762 2.38708
493 1 5.24641 6.25839 1.73349
494 1 5.17461 6.33738 2.70673
491 1 4.73891 7.12248 1.86754
495 1 6.19721 6.97515 2.63476
496 1 6.43717 6.05525 2.59827
813 1 6.89829 6.3666 1.44735
874 1 8.39054 5.79926 2.14503
814 1 7.48333 6.27319 2.20146
873 1 8.23282 6.68705 1.70406
805 1 9.24085 6.24018 1.97349
862 1 10.3237 6.39933 1.81759
1278 1 11.3185 6.39729 2.14444
861 1 10.2617 6.85383 2.69897
1128 1 12.4379 6.67 2.09479
823 1 11.908 5.91785 2.80719
1144 1 13.2868 5.71637 1.76899
1127 1 13.3941 6.63581 2.33062
1466 1 15.1652 6.2372 1.98734
1215 1 14.391 6.96314 2.62316
1147 1 14.3143 5.82038 2.5954
1141 1 16.0543 6.634 2.12793
1482 1 17.1252 6.18944 2.39312
1772 1 17.4777 7.12908 2.12794
1771 1 18.0694 6.40388 1.8816
1484 1 19.0772 6.54137 1.83565
1770 1 19.7224 6.1308 2.54199
1483 1 18.9217 6.75472 2.76041
1769 1 20.5284 6.65829 2.58744
1778 1 20.3774 5.72443 1.76053
2032 1 22.7151 6.52741 2.44007
1784 1 22.1928 6.67988 1.49354
1783 1 21.6075 6.6957 2.27517
1768 1 23.1426 5.78944 1.74697
2166 1 23.5055 7.11531 2.57695
2165 1 23.9255 7.12452 1.70688
2089 1 25.4939 5.99094 2.26536
2095 1 24.3413 6.14958 2.27711
2420 1 26.2755 6.79771 2.01422
2419 1 27.1251 6.32647 1.82359
188 1 28.3696 6.79513 2.0898
2500 1 27.5612 6.85597 2.78665
2357 1 27.7765 5.84888 2.47712
187 1 29.2245 6.9144 1.66164
208 1 29.3967 5.94375 2.77057
251 1 1.24076 7.43993 2.3262
253 1 0.378139 7.91904 2.78569
259 1 0.570161 8.38162 1.85186
252 1 1.95289 7.86296 1.83792
264 1 2.36488 7.2151 2.64764
167 1 2.95115 7.90955 2.04849
576 1 3.92597 7.63919 2.51216
637 1 5.28549 8.37906 1.55244
489 1 5.69579 7.43778 1.64513
570 1 4.95615 7.66556 2.7745
579 1 6.51172 8.48369 1.48746
580 1 6.91231 7.76988 1.96818
490 1 5.85718 8.02979 2.40018
555 1 8.27314 7.77289 1.7933
820 1 7.62915 7.41368 2.63052
501 1 8.1862 8.20312 2.84542
556 1 8.83201 7.24844 2.44809
880 1 9.73747 7.42849 2.08314
879 1 10.4288 7.9394 2.46058
1124 1 11.2164 7.50741 1.84673
887 1 11.0765 8.50765 2.05441
1202 1 12.185 7.80566 1.67035
1270 1 11.6933 8.00918 2.73772
1151 1 12.7982 8.49689 2.8424
1201 1 13.1228 7.6529 1.85002
1132 1 14.0873 7.41846 1.6066
1126 1 13.9283 8.52296 1.96761
1231 1 14.9842 8.11867 2.28485
1522 1 16.7073 7.25532 1.45197
1360 1 15.9577 7.77347 2.10476
1453 1 16.923 7.91492 2.68
1526 1 17.3924 7.94568 1.49936
1551 1 18.0066 8.39738 2.63522
1532 1 19.8359 7.51811 2.07604
1552 1 18.6044 7.62826 2.33352
1531 1 20.1171 8.39118 2.36172
1854 1 20.9117 7.50701 2.05317
2173 1 21.9888 7.97659 2.10922
2174 1 22.8525 8.12144 2.37399
2170 1 24.1051 8.06693 1.95522
2101 1 25.0497 7.21269 2.81966
2501 1 25.1491 7.2044 1.79242
2502 1 25.0839 8.18134 1.93722
2258 1 26.8993 8.33211 1.88717
2257 1 26.0827 8.00574 2.26868
2510 1 27.7125 7.66906 2.10595
2434 1 27.1453 8.07831 2.84633
254 1 29.9074 7.53968 2.04297
2509 1 28.672 7.86672 2.15584
2356 1 29.0573 7.159 2.79276
22 1 0.889125 9.72847 2.77431
20 1 1.21892 9.37155 1.88158
23 1 2.19759 8.84178 2.02883
265 1 2.59591 9.67443 2.14285
17 1 3.47607 8.83561 2.1617
18 1 3.86009 9.55748 2.61581
572 1 4.61214 8.78957 2.31441
336 1 6.00056 9.36718 2.03357
335 1 6.89853 9.74227 1.8886
326 1 6.74398 8.59875 2.51583
325 1 7.58239 8.68803 2.04683
567 1 8.03049 9.59367 1.96264
884 1 8.98173 9.92013 1.60896
901 1 9.51867 8.70979 1.43334
896 1 9.02418 9.34042 2.54017
888 1 11.308 9.44369 1.73737
885 1 10.2244 9.36276 2.21421
1540 1 11.9799 9.42957 2.46984
1539 1 12.3335 8.86648 1.75207
975 1 12.9954 9.94829 1.86467
1125 1 13.5584 9.2823 2.38484
1318 1 15.0582 9.99504 2.70882
1538 1 14.6154 9.3782 1.89631
1537 1 14.4701 8.97607 2.76528
1359 1 15.7829 8.62181 1.67413
1865 1 17.0765 8.92393 2.29179
1569 1 15.9146 9.40228 2.35867
1866 1 17.8563 9.05658 1.732
1870 1 18.4344 9.85621 2.31479
1869 1 19.4123 9.70788 2.41756
1848 1 19.0217 8.82361 2.006
2179 1 21.1588 8.73298 1.86504
1625 1 20.2011 9.27395 1.91609
1919 1 20.6923 9.23347 2.83298
1920 1 21.2285 9.78858 2.29331
2180 1 21.5184 8.75338 2.73634
2167 1 22.7612 8.66472 1.46355
2168 1 22.2828 9.22441 2.09101
1862 1 22.0909 9.94726 2.83793
2188 1 23.6291 9.16804 1.72444
2178 1 24.0204 8.90311 2.74447
2187 1 24.5596 9.1959 1.57283
1925 1 25.0101 9.44621 2.55262
2263 1 26.5295 9.68558 1.47876
2264 1 25.827 9.25174 2.01905
2506 1 27.0387 9.0279 2.56608
2507 1 27.958 8.71414 2.06484
2508 1 27.465 9.45102 1.65312
289 1 28.2338 9.84596 2.22876
21 1 29.9227 9.85027 2.69796
287 1 29.2403 9.98164 1.86735
260 1 29.97 9.09747 1.91434
2251 1 29.0019 9.02067 2.35863
2252 1 28.9021 8.8266 1.46461
303 1 0.982075 0.267716 3.89476
121 1 1.39836 1.31747 3.90132
304 1 0.637936 0.827289 3.14827
31 1 2.17444 0.253705 3.03805
32 1 2.37037 1.1942 3.05785
342 1 2.53095 0.494387 4.1227
93 1 4.22049 1.19906 3.72889
341 1 3.18369 0.576819 3.42698
29 1 4.56607 0.471837 2.9748
354 1 5.45647 0.951741 3.55825
262 1 4.58357 0.00552742 3.98198
338 1 6.72042 1.34562 3.01311
370 1 6.44763 0.553412 3.50865
369 1 7.08764 1.016 4.06129
339 1 8.57065 1.3073 3.12931
899 1 8.24794 0.0582056 3.13305
616 1 7.88144 0.158308 4.10208
340 1 8.36708 1.28609 4.10378
710 1 9.29625 0.680875 3.7547
742 1 9.81094 0.0220234 2.9461
709 1 9.69575 1.14982 2.9777
656 1 10.4432 0.663857 3.50723
988 1 12.2119 0.459851 2.9655
907 1 11.4349 1.28002 2.93305
904 1 11.4872 0.431324 3.62771
994 1 12.4449 1.33266 3.55019
1205 1 12.5138 0.336653 4.15758
993 1 11.5778 1.34975 4.10603
1536 1 13.3716 0.966904 4.07251
1535 1 13.4347 0.880112 3.14662
968 1 14.4944 0.705743 2.98996
1249 1 15.3573 0.979217 3.5459
1317 1 15.9798 0.261372 2.90557
1000 1 15.8911 0.117684 3.999
1007 1 16.6247 0.967756 3.75746
1313 1 17.6279 0.588973 3.06574
1314 1 18.5465 0.763226 2.87396
1391 1 17.9145 1.09222 4.03455
1562 1 17.4784 0.0406788 4.13092
1310 1 19.902 1.1414 3.45453
1309 1 19.307 0.371735 3.4915
1640 1 19.0915 1.10964 4.21261
1633 1 20.5636 0.238201 3.78036
1718 1 20.8691 1.23693 3.84488
1881 1 21.227 0.68935 3.04392
1877 1 22.6087 0.887485 3.24878
1878 1 21.9145 0.878976 3.94986
2183 1 23.7154 0.508491 3.3245
1956 1 23.859 0.870709 4.27252
2176 1 24.4966 1.25196 3.14684
1960 1 25.4296 0.348306 3.67243
1959 1 24.7329 0.082302 4.20202
2334 1 26.0956 1.07347 3.6724
2273 1 26.6513 0.178336 3.99215
2498 1 27.5677 0.54066 3.32264
2497 1 28.5421 0.78535 3.36822
2267 1 29.667 0.644382 3.41086
2344 1 0.812608 1.97285 3.09244
2343 1 0.802963 2.44141 3.92188
41 1 0.0770663 1.4644 3.91592
445 1 2.46745 1.56167 4.14906
38 1 1.81348 2.33776 3.2481
446 1 2.56844 2.51535 4.25996
102 1 2.85853 2.26163 3.28512
101 1 3.46069 1.61242 3.0875
435 1 3.80589 2.14504 4.05156
414 1 3.91445 2.74345 3.0102
94 1 4.58724 1.51713 2.86877
353 1 5.68254 1.83871 3.2925
409 1 4.79207 2.27673 3.63804
350 1 5.66798 2.57176 4.24806
427 1 6.69732 2.11394 3.99063
344 1 7.64589 1.75163 3.44892
666 1 8.59032 2.28255 3.83686
644 1 9.42084 2.82438 3.91779
351 1 9.70089 1.65748 3.9103
743 1 10.3348 2.80707 3.21036
352 1 10.5859 1.84289 3.56893
978 1 11.5701 2.37816 3.502
1002 1 14.054 2.02039 4.08181
1001 1 13.2497 2.04449 3.56273
985 1 15.0137 2.09739 3.43995
1250 1 14.8678 1.46682 4.27677
986 1 15.9773 2.01975 3.35648
1407 1 17.0613 2.64102 3.93708
1008 1 16.0184 1.58304 4.19183
997 1 15.8681 2.79985 4.27377
979 1 17.3022 1.5653 3.17985
1408 1 17.1717 1.79258 4.25905
980 1 18.0747 2.11452 2.93001
1389 1 18.1682 2.35453 4.01468
1305 1 19.0202 1.97337 3.40695
1631 1 20.0646 2.26931 3.33513
1709 1 21.1243 2.71904 3.77061
1671 1 22.8008 2.22849 3.78829
1705 1 21.745 1.90777 3.5731
1672 1 23.3167 1.70623 3.13759
1620 1 23.7867 2.29969 3.9778
2175 1 24.3046 2.21515 3.03967
1619 1 24.7194 1.98599 3.92094
2340 1 25.5282 2.38062 3.44628
2361 1 26.8551 1.71977 3.65588
2287 1 27.8951 1.68817 3.26581
2052 1 27.2625 2.5408 3.14952
2278 1 28.8877 1.74041 4.00143
2268 1 29.8633 1.56689 2.95058
2277 1 28.8877 1.95101 3.0522
2519 1 29.7481 2.55216 2.90742
2520 1 29.6645 2.50416 3.89699
195 1 0.609521 3.08354 2.99592
2359 1 0.144249 3.6598 4.11311
196 1 0.936549 3.91698 3.42933
25 1 1.58085 3.13187 4.22325
26 1 2.04726 3.71506 3.59038
480 1 3.0263 4.23907 2.94106
497 1 4.03378 3.70744 3.29499
436 1 3.90134 3.11247 4.21511
434 1 3.3724 4.09416 4.06708
433 1 3.00177 3.32219 3.70408
410 1 4.90733 3.18389 3.85235
408 1 5.2887 4.21729 3.67209
407 1 4.48605 4.16241 4.23561
483 1 5.89859 3.10573 3.41717
425 1 6.8301 3.51588 2.92365
347 1 6.57342 4.16656 4.21337
426 1 6.82009 3.15488 3.81891
424 1 7.53087 4.15751 3.22809
745 1 7.9283 3.08949 3.4601
755 1 8.38953 4.15198 3.8173
756 1 7.72132 3.71127 4.26807
643 1 8.91007 3.31918 3.20176
747 1 9.93826 3.80888 3.70418
736 1 11.3891 3.49682 3.63202
1068 1 12.5829 2.91578 3.61036
1074 1 12.1337 3.83667 2.94627
1122 1 13.8863 4.16188 3.60326
1121 1 13.1718 3.76393 3.14961
984 1 13.7674 2.9789 3.74171
1076 1 13.0994 3.78951 4.2052
1077 1 15.2833 3.37636 3.02839
1078 1 14.7141 3.08836 3.75623
1382 1 15.4748 3.85128 4.00584
1376 1 16.2539 3.0622 3.38669
1085 1 16.4451 4.11602 3.72158
1086 1 17.1906 3.61733 3.38748
1419 1 18.2702 4.15423 4.25318
1400 1 18.6253 2.9678 2.94828
1390 1 18.8753 3.10214 4.05272
1385 1 19.5026 4.10481 3.7385
1312 1 20.0735 3.21411 3.85282
1710 1 21.2914 3.32445 3.05595
1798 1 21.0881 4.11737 3.78375
1394 1 20.3649 4.03557 3.05435
1873 1 22.1202 2.89108 3.40875
1797 1 22.0374 3.88569 3.77451
1943 1 23.7608 3.13913 3.32392
1944 1 23.0422 3.78684 3.39956
1628 1 24.251 3.72456 3.98736
1931 1 25.0303 3.1092 2.93025
2100 1 24.7165 4.1756 3.02079
2039 1 25.3647 3.86091 4.12023
2354 1 26.1078 3.20516 3.47184
2124 1 26.562 3.81513 4.23154
2364 1 27.5523 3.41281 3.77695
2363 1 28.2691 3.11874 3.19162
2431 1 29.5577 3.83713 3.02453
199 1 28.703 3.34422 4.0109
185 1 0.288111 5.2921 2.88239
2370 1 0.140908 4.63417 3.81497
103 1 1.4138 4.7646 3.09331
104 1 1.48983 5.70386 3.29721
180 1 2.84313 5.18498 3.39642
111 1 2.31242 4.49933 4.16827
112 1 1.79154 5.28571 4.21917
179 1 3.5824 4.98421 4.00556
421 1 5.37371 5.04855 2.98398
420 1 4.59853 5.63948 3.32448
331 1 6.36658 4.75173 3.23413
442 1 5.9071 5.02074 4.23203
825 1 7.71301 5.35906 2.87517
423 1 7.53266 4.8734 3.90383
826 1 8.27892 5.53156 3.69033
1157 1 9.99894 5.1567 3.30995
1158 1 9.22797 4.65547 3.62565
735 1 10.9396 4.36615 3.43922
758 1 10.699 5.49567 3.99134
1055 1 12.1508 4.37606 3.84826
912 1 12.3642 5.48319 4.10411
911 1 11.6893 5.23774 3.55976
1056 1 12.8755 4.70544 3.28542
1060 1 14.2431 5.12548 3.6747
1458 1 14.9353 4.42546 2.94205
1225 1 15.1709 5.59121 3.23353
1071 1 15.1868 5.04925 4.2463
1480 1 17.4885 4.6427 3.18154
1727 1 18.7319 4.54607 3.10607
1473 1 19.907 5.06581 3.25192
1716 1 19.0122 4.95044 4.14904
1782 1 21.18 4.90029 2.90096
1789 1 20.7941 5.28798 4.04551
2028 1 22.7491 4.99715 3.12059
1713 1 21.9781 4.94139 3.80605
2030 1 22.7842 5.69804 3.90925
2027 1 23.61 4.62825 3.33884
2040 1 25.5804 4.56023 3.46203
2348 1 24.3887 5.51076 3.1515
2036 1 26.5455 4.36822 3.24033
2112 1 26.3068 5.43365 3.85023
2335 1 27.5535 4.45463 2.8793
2035 1 27.1606 4.8834 3.73102
2037 1 28.2638 5.26752 4.08492
108 1 28.3911 5.27287 3.02295
107 1 28.6366 4.4213 3.41537
194 1 29.304 5.34898 4.08126
204 1 0.0624804 6.00611 3.59908
190 1 0.334132 7.13513 3.65842
189 1 0.845217 6.56289 3.11388
202 1 1.10969 6.48689 4.27423
184 1 2.25837 6.65379 3.62564
419 1 3.69238 5.85922 3.53588
281 1 3.19953 6.67289 3.02726
500 1 4.51261 7.11388 3.61343
512 1 5.06081 6.26838 4.00734
594 1 6.9068 5.76409 3.5093
593 1 5.92816 5.89505 3.43015
587 1 6.51482 6.80062 4.22679
819 1 7.27189 6.76137 3.28007
811 1 8.38146 6.45574 2.98173
504 1 7.7489 6.38444 4.09539
1135 1 9.62291 6.05806 3.0083
812 1 8.80129 6.33871 3.78145
897 1 9.84817 6.17946 3.96639
824 1 10.9704 5.71695 2.88571
898 1 10.6497 6.4776 3.53
1277 1 11.4904 6.94588 2.98492
1170 1 12.0342 6.46352 3.72159
1137 1 13.2528 5.7452 3.57224
1148 1 14.1165 6.28722 3.40396
1233 1 13.2917 6.97706 4.023
1160 1 14.924 6.76089 4.12393
1142 1 15.554 6.93984 2.88355
1226 1 16.0573 5.91362 3.22085
1481 1 16.8818 6.69861 3.19389
1558 1 16.1881 6.73347 3.96534
1464 1 17.5449 5.7356 3.52813
1489 1 17.7197 6.62774 4.09541
1715 1 18.5408 5.90942 4.16035
1474 1 19.4325 5.8428 3.54125
1795 1 18.7916 6.91586 3.82834
1774 1 21.3226 6.73925 3.28836
1781 1 20.6331 5.72948 2.99744
2121 1 20.4998 6.44904 3.93098
1773 1 21.5017 5.7964 3.55337
2029 1 22.3648 6.51589 3.48362
2031 1 23.3256 6.01207 2.9942
1791 1 23.41 6.85892 3.69101
2118 1 23.9698 5.78766 4.0708
2347 1 25.3292 5.79792 3.41954
2102 1 24.4369 6.65121 3.32622
2358 1 26.8602 5.82038 2.89735
2337 1 26.5082 6.65769 3.2405
2414 1 27.111 6.01156 4.18463
2428 1 26.7682 7.02453 4.22275
2499 1 28.2678 6.99789 3.50115
2413 1 27.803 6.13855 3.66353
207 1 28.8228 6.06044 3.57771
2438 1 29.2772 6.96771 3.82718
294 1 1.39355 7.52891 3.65561
58 1 1.3932 8.40969 2.8663
279 1 2.40745 7.44312 4.20528
280 1 2.53537 8.23031 3.71662
53 1 1.5805 8.30697 4.26103
575 1 3.79679 8.43476 3.11048
282 1 3.13076 7.57714 3.13641
569 1 5.49541 7.95595 3.57501
506 1 6.70574 7.69778 3.07577
588 1 6.48271 7.78821 4.16901
565 1 7.57689 7.84718 3.63738
566 1 8.45446 7.42784 3.49321
502 1 9.18483 8.38536 2.8948
803 1 9.53219 7.65957 3.67744
919 1 8.61461 8.26787 4.15978
1214 1 10.8289 7.70808 3.33514
804 1 10.2536 7.23371 4.13432
686 1 10.5498 8.48887 4.06665
1269 1 12.4965 7.4399 2.99808
1139 1 11.6873 7.42061 3.87319
1140 1 12.2813 8.16676 3.69407
1216 1 13.9128 7.76926 2.90029
1468 1 13.6646 7.89591 4.10276
1553 1 14.9823 7.73033 3.47363
1554 1 15.9177 7.75532 3.37384
1557 1 16.7276 7.50199 4.11819
1454 1 16.836 8.5007 3.4627
1490 1 17.9053 7.15341 3.36231
1807 1 18.2791 8.5695 3.68413
1808 1 17.9261 7.89088 4.19607
1547 1 19.1688 7.99257 3.17475
1548 1 19.8128 7.27544 3.15425
1893 1 19.6414 7.64067 4.23315
1868 1 19.9002 8.43646 3.64301
1853 1 20.8852 7.78328 2.92513
2122 1 20.7272 7.4255 4.14843
1859 1 21.0867 8.52896 3.69908
2107 1 21.6896 7.61486 3.76099
1792 1 22.8412 7.55184 3.35167
2169 1 24.1988 7.80961 2.91056
2275 1 24.0699 8.05828 3.95343
2276 1 24.9176 7.62301 3.90435
2199 1 25.2295 8.3185 3.16661
2338 1 26.3942 7.61227 3.36746
2191 1 25.8065 8.20134 4.08462
2518 1 27.0408 8.44293 4.12673
210 1 28.4759 7.90389 3.99003
2433 1 28.0568 8.34158 3.0622
2427 1 27.4593 7.54368 3.83681
2355 1 29.447 7.99594 3.1525
212 1 29.2919 8.4666 4.25
274 1 0.12645 9.70277 3.86857
54 1 1.32644 9.20997 3.93297
273 1 0.350946 8.75162 4.06703
57 1 1.83149 9.33829 2.92122
276 1 2.3847 9.29066 3.98944
24 1 2.73028 8.78809 2.87422
275 1 3.17779 9.56406 3.63972
277 1 3.98769 9.03355 4.22237
30 1 5.31297 9.9248 2.98255
571 1 5.44565 8.79372 2.86754
278 1 4.67076 8.94018 3.52392
596 1 6.0269 9.52249 3.84054
577 1 7.10744 9.83941 2.96348
505 1 6.4294 8.57201 3.46378
590 1 7.43764 8.92548 3.33071
589 1 8.09947 9.16821 3.90403
905 1 9.57055 8.7435 4.01021
584 1 9.84425 9.87676 4.21063
895 1 9.0408 9.5286 3.52632
1213 1 11.0631 8.6608 3.24007
906 1 10.1297 9.07079 3.33447
886 1 10.8881 9.61903 2.89844
1229 1 10.7663 9.47025 4.00875
903 1 11.9071 9.61562 3.51001
1235 1 12.8498 8.90835 4.24029
1219 1 12.9735 9.55566 3.41139
1152 1 13.5687 8.57843 3.46474
1220 1 13.9229 9.78453 3.35755
1228 1 15.4134 8.67176 3.55301
1227 1 14.9718 9.5488 3.6467
1570 1 16.2105 9.38396 3.28467
1574 1 18.4071 9.90793 3.44897
1573 1 17.6477 9.45162 3.10575
1497 1 17.478 8.91028 4.2759
1549 1 18.9156 9.04739 2.98077
1550 1 19.093 9.14939 3.93305
1867 1 19.9181 9.38875 3.41441
1871 1 21.3158 9.54128 3.67488
1860 1 22.0143 8.66537 3.71006
1861 1 22.5296 9.71148 3.69139
2177 1 23.0972 8.94458 3.07407
2190 1 23.2453 8.72409 4.19294
1926 1 24.4134 9.65738 3.28263
2192 1 25.4873 9.11178 4.20831
2200 1 26.1297 8.66478 3.11332
2505 1 26.8837 9.40248 3.47002
290 1 27.9622 9.51867 3.06094
2280 1 27.7286 9.45367 4.05027
291 1 29.65 8.93096 3.25558
2457 1 28.5851 8.97215 3.83815
292 1 29.0667 9.74774 3.31396
42 1 0.446027 0.768076 4.48684
39 1 1.88533 1.06243 4.94221
49 1 2.64444 0.0799191 5.61615
360 1 3.62437 0.368711 4.37296
448 1 3.8305 1.37593 4.6758
447 1 3.07297 0.974514 5.08474
358 1 4.99407 0.778829 4.73097
595 1 5.81119 0.329835 4.32325
781 1 5.96242 1.18128 4.87291
782 1 6.67159 0.552996 4.90885
615 1 7.88105 0.387876 5.04952
683 1 7.44816 1.30438 5.14043
682 1 8.74341 0.840964 4.98672
654 1 9.79719 0.833779 4.65995
653 1 9.61113 0.0741827 5.33119
1230 1 10.7309 0.208905 4.65343
910 1 10.2796 0.807831 5.51596
909 1 11.1818 0.57693 5.6909
1206 1 11.7619 0.399763 4.69163
1208 1 12.6259 0.356991 5.69267
1240 1 12.7016 1.13173 4.96514
1207 1 13.3419 0.126312 5.02183
1248 1 14.1889 0.282788 5.71364
677 1 14.0544 1.17972 5.11011
1246 1 14.3215 0.118438 4.38055
999 1 15.3711 0.632836 4.50713
1401 1 15.7659 0.688123 5.66132
1328 1 16.4747 1.37478 5.06426
1402 1 16.5694 0.23636 5.40228
1327 1 17.2954 0.857515 4.79389
1639 1 18.5235 0.417452 4.63404
1896 1 18.7298 0.704472 5.60843
1659 1 20.2258 1.11471 4.66493
1634 1 21.1335 0.434577 4.59672
1658 1 20.6935 0.0907667 5.66516
1856 1 22.7624 0.250496 5.44885
1855 1 22.8513 0.257632 4.47506
1635 1 22.3888 1.16433 4.92889
2193 1 23.4403 1.08705 5.39682
2194 1 24.1512 0.424183 5.22911
2256 1 25.223 1.07132 4.40714
1983 1 25.1934 0.492391 5.42735
2513 1 26.5768 0.97389 4.65954
2274 1 25.9914 0.136818 4.68686
2514 1 26.5015 0.847962 5.57961
2279 1 27.8836 0.376134 4.34415
2295 1 28.1835 1.23402 4.79182
1976 1 27.395 0.501704 5.34314
2293 1 29.7567 0.327845 5.16571
2528 1 29.1066 0.79347 4.36663
2304 1 28.9358 0.524462 5.65434
2385 1 29.5653 1.42014 5.14737
2352 1 0.839531 1.46209 5.06593
2447 1 1.22561 2.40028 5.58594
2351 1 0.194714 2.0474 4.77951
122 1 1.56707 1.98436 4.56889
45 1 2.51713 1.9226 5.23473
46 1 2.0968 2.81229 5.25557
128 1 3.28275 2.6901 5.09361
61 1 3.67978 1.69135 5.60124
357 1 4.80782 1.67345 4.46907
437 1 5.08695 1.75955 5.39252
428 1 6.70096 1.86009 4.89064
349 1 5.8679 2.67048 5.1644
343 1 7.7549 2.02888 4.42182
665 1 8.54085 2.83811 4.67681
361 1 7.73341 2.59729 5.29382
362 1 8.37501 1.86122 5.21167
754 1 9.41492 1.76754 5.32625
753 1 9.48189 2.71212 5.24135
982 1 10.3963 1.95829 4.59914
981 1 10.4631 2.82954 4.29213
995 1 11.1827 1.56646 5.00338
996 1 10.4432 1.83485 5.60127
672 1 10.6391 2.78726 5.33107
737 1 11.4854 2.61046 4.71224
738 1 12.2426 2.16661 4.36152
1237 1 12.3477 2.04925 5.36068
1239 1 13.1909 1.89577 4.62957
998 1 15.118 2.39874 4.56297
1090 1 15.6497 2.00127 5.33583
1162 1 14.3649 2.2956 5.40605
1403 1 16.4783 2.43951 4.96
1392 1 18.2853 1.52066 4.84173
1319 1 17.313 1.86017 5.34502
1741 1 18.1848 2.58041 5.09904
1641 1 19.1509 2.25934 4.7016
1642 1 19.478 1.80951 5.51691
1660 1 20.4387 2.03874 4.33242
1717 1 21.2947 1.47549 4.71601
1719 1 20.5948 1.77857 5.48212
1733 1 21.0274 2.73933 4.95807
1734 1 21.8892 2.32564 4.55553
1654 1 22.4692 2.73796 5.5455
1648 1 21.5674 1.79887 5.65838
1623 1 23.1492 2.05717 4.8591
1948 1 25.4644 2.44156 4.59995
1955 1 24.4064 1.49091 4.84914
1947 1 25.4849 2.46942 5.54779
1945 1 24.4209 2.41565 5.21893
2255 1 25.6442 1.55552 5.16164
2362 1 26.1397 1.81378 4.29972
1973 1 26.5643 2.33165 5.64377
2123 1 26.7134 2.8353 4.31811
2282 1 27.7314 2.3282 4.35418
2296 1 27.3775 1.63894 5.16014
2386 1 28.8937 2.05408 5.09588
2442 1 29.9517 2.75622 5.4885
2448 1 0.766402 2.86167 4.85754
2360 1 0.307977 3.79181 5.11289
127 1 2.80194 3.51645 4.88339
126 1 1.77446 3.86997 4.94006
130 1 3.79524 3.66599 5.30015
129 1 4.38604 2.93306 5.3193
431 1 5.46878 3.54746 5.55798
760 1 6.83148 3.17459 5.00068
432 1 5.75138 3.65819 4.59583
667 1 8.19475 3.3691 5.65938
829 1 7.51049 4.15082 5.317
761 1 8.85692 3.86924 4.85132
748 1 9.87502 3.61613 4.60336
671 1 11.0545 3.55358 4.84178
778 1 10.3005 3.88992 5.5565
1075 1 12.2346 3.3784 4.53203
1167 1 12.7396 4.13147 5.16268
1014 1 12.0496 3.02542 5.43287
983 1 14.1209 2.97253 4.71675
1081 1 13.1234 3.00606 4.87948
1079 1 13.7319 4.24097 5.09343
1080 1 14.4152 4.11915 4.46443
1134 1 15.1681 3.46311 4.87976
1381 1 16.2928 3.68579 4.59593
1404 1 16.0559 3.08045 5.62146
1420 1 17.3065 4.07959 4.37333
1742 1 18.229 3.53304 5.29088
1411 1 17.374 3.19343 4.85598
1311 1 19.8655 3.20423 4.7955
1731 1 19.0306 4.12543 4.90365
1752 1 19.2041 2.89236 5.66148
1732 1 19.9674 4.20918 5.28738
1650 1 21.0069 3.78962 5.00083
1649 1 20.5864 3.34036 5.70629
1729 1 22.3006 3.32148 4.53494
1730 1 22.032 3.69174 5.34253
1624 1 23.4769 2.87245 5.18783
1627 1 23.4543 3.25665 4.32362
2046 1 24.1472 4.05015 5.48492
2041 1 22.9685 4.12845 5.3455
1946 1 24.7028 3.29059 4.93234
2049 1 26.6371 3.41153 5.58054
1966 1 25.7779 4.09736 5.50171
1965 1 25.845 3.31678 4.91745
2050 1 27.055 4.18258 5.25459
2281 1 27.4061 2.93739 5.0752
2365 1 27.644 4.25746 4.39583
2366 1 28.1774 3.63973 4.87725
2285 1 28.5347 2.97682 5.57048
200 1 29.1359 4.15751 4.33506
2441 1 29.3633 2.94294 4.75473
203 1 0.493645 5.64763 4.30011
2369 1 0.961047 4.55586 4.32134
124 1 0.667687 4.77825 5.20539
123 1 1.1864 5.63455 5.04801
592 1 2.39672 5.33483 5.04398
191 1 2.95332 4.5462 5.14911
116 1 3.92585 4.72827 5.16988
591 1 3.24112 5.70201 5.07441
441 1 4.9399 5.18896 4.36981
115 1 4.87242 4.53838 5.28115
522 1 4.95269 5.63828 5.48706
348 1 6.79412 4.81745 4.88458
827 1 7.6815 5.22898 5.67333
830 1 8.17364 4.60111 4.83011
503 1 7.50714 5.62976 4.66234
751 1 8.94849 5.04629 4.45579
752 1 9.85481 4.716 4.39575
749 1 8.77268 5.30538 5.68289
750 1 9.41703 4.60404 5.36002
846 1 10.247 5.56779 4.91222
757 1 11.0244 4.63117 4.39646
1094 1 11.2314 4.79599 5.56435
1168 1 12.1003 4.76788 4.77504
1059 1 14.2054 5.61177 4.5004
1189 1 13.1815 5.11974 4.81597
1097 1 14.9447 4.83549 5.37574
1098 1 15.7266 4.49034 5.01369
1475 1 16.7754 5.00197 4.87871
1496 1 15.9393 5.55686 5.25304
1463 1 17.6221 5.1418 4.3448
1397 1 17.5712 4.5183 5.34497
1398 1 18.3378 5.02641 5.07249
1725 1 19.3893 4.97078 5.58359
1799 1 19.8409 5.57813 4.67275
1701 1 20.2857 4.5831 4.40729
1702 1 20.6697 4.97094 5.1798
1723 1 21.4191 5.67541 5.60997
1714 1 21.5372 4.59004 4.65555
2042 1 22.5472 4.3979 4.48951
1739 1 22.5138 5.69588 5.59342
1962 1 23.5995 4.49633 4.39405
1961 1 23.1571 5.21881 4.70802
2025 1 24.8298 4.89174 5.35991
2026 1 24.7108 5.05663 4.44222
2128 1 25.6087 5.53536 5.15172
2367 1 26.0737 4.73264 4.68183
2368 1 26.9577 5.10859 4.73886
2465 1 28.1475 4.70293 5.26267
2436 1 27.7399 5.61496 5.70189
117 1 29.6946 4.78461 5.13563
193 1 28.7829 5.34696 4.88725
138 1 0.422444 6.60393 5.04596
137 1 1.1459 6.37902 5.6276
284 1 2.08125 6.26542 4.85985
283 1 2.80644 6.73918 5.26084
201 1 1.57372 7.06724 4.8684
499 1 3.97318 6.87736 4.43891
183 1 2.93664 6.52416 4.30001
219 1 4.07 6.30334 5.40448
511 1 5.53113 7.03978 4.34089
509 1 4.94324 6.72702 5.30995
514 1 6.17968 5.75784 4.88625
513 1 6.93155 6.30865 5.33561
1064 1 8.329 6.09294 5.05555
1063 1 7.85081 6.8301 5.40366
917 1 8.34573 7.1298 4.52751
845 1 9.32761 5.94717 4.89308
831 1 9.86676 6.8763 5.12421
835 1 10.8105 6.42691 4.71807
1156 1 11.2638 6.53187 5.63051
836 1 11.4642 5.7258 4.71324
1169 1 12.0575 6.61676 4.70029
1153 1 12.6297 5.81031 5.43156
1190 1 13.1667 6.07073 4.70888
1252 1 13.1615 7.04866 5.14059
1255 1 13.9928 6.70583 5.6359
1072 1 15.6163 5.91553 4.36552
1177 1 14.8007 6.30886 5.06225
1476 1 16.7855 5.84287 4.36493
1499 1 16.0861 6.54839 5.18174
1495 1 16.8713 5.75947 5.55124
1485 1 17.2059 6.66245 4.98893
1421 1 18.4705 6.85315 5.01899
1486 1 17.7257 5.86442 5.05139
1478 1 18.8924 5.83912 5.29111
1796 1 19.4023 6.55049 4.49661
1790 1 20.7812 5.93063 4.83204
1800 1 20.094 5.77138 5.54157
1801 1 20.1662 6.96434 5.08549
1787 1 21.5587 6.67014 4.30934
1883 1 21.6599 6.64701 5.56828
1788 1 21.7971 5.81706 4.63034
2114 1 22.4905 6.52038 4.93755
2117 1 23.592 6.27098 4.83439
2127 1 24.8347 6.10119 5.03565
2129 1 24.9496 6.72506 4.33439
2111 1 25.9701 6.21651 4.40485
2140 1 26.8647 6.7075 5.32631
2133 1 25.7844 6.86651 5.39434
2445 1 27.9588 6.81459 4.58278
2038 1 27.9457 5.83595 4.75116
2446 1 28.3863 6.38102 5.40469
118 1 29.8607 5.7184 5.04724
113 1 29.6513 6.9614 5.59858
2437 1 29.2032 6.49331 4.63342
293 1 0.768328 7.66199 4.4278
214 1 0.327803 8.27515 5.09141
2308 1 2.15522 7.84933 5.28025
515 1 3.81223 7.90117 4.48024
35 1 3.13222 7.76666 5.31028
269 1 4.17451 7.81621 5.46886
36 1 3.13421 8.55052 4.73251
516 1 4.70572 8.20427 4.33902
510 1 5.22669 7.64082 5.15333
582 1 6.42407 7.47046 5.1525
916 1 7.01313 8.36446 5.65357
603 1 7.21776 8.49573 4.44982
918 1 7.35734 7.35503 4.56969
920 1 8.16324 8.02895 4.99496
1173 1 9.58579 7.96676 4.89245
833 1 8.97785 7.34853 5.38135
921 1 10.848 7.38192 5.08276
1174 1 10.1104 8.22371 5.61077
685 1 11.0354 8.32744 4.8753
1234 1 12.6144 7.54985 4.34831
1242 1 12.1656 8.30063 5.13494
1159 1 14.2614 7.17167 4.65449
1467 1 13.2174 8.12909 4.93201
1541 1 14.1548 8.53092 5.10473
1542 1 14.7045 8.41407 4.30937
1145 1 15.6674 7.50523 4.51544
1576 1 14.3686 7.65625 5.59443
1146 1 15.2131 7.20297 5.31446
1564 1 15.571 8.46698 5.11966
1563 1 16.1153 8.51853 4.29717
1559 1 17.0822 7.66664 5.28775
1560 1 16.174 7.66613 5.65961
1498 1 17.6234 8.53086 5.1503
1805 1 18.3528 7.93186 5.57377
1894 1 19.2868 7.49064 5.06012
1903 1 18.9425 8.57076 4.92937
1492 1 20.1232 8.16146 5.70994
1491 1 20.3593 8.25368 4.75349
1863 1 21.1891 7.52279 5.24964
1864 1 21.4978 8.30662 4.70996
2108 1 22.3275 7.56104 4.46383
2197 1 23.9456 8.0802 4.98061
2198 1 23.2863 7.37221 4.83702
1885 1 22.8953 8.15199 5.39793
2130 1 25.6924 7.26002 4.52171
2202 1 24.6803 7.3987 5.36368
2451 1 25.8455 8.49783 5.24127
2443 1 26.7217 7.75131 5.05106
2444 1 27.6241 7.9431 4.85163
2203 1 27.9166 7.3901 5.68958
209 1 28.7032 7.48171 4.78512
2439 1 29.3358 8.48629 5.39184
211 1 29.785 7.6192 4.47404
2292 1 0.541062 9.76762 4.78761
44 1 1.06631 8.89314 5.04774
43 1 0.523471 9.31041 5.70414
34 1 1.64261 9.90195 4.7502
33 1 2.10038 9.18157 5.23122
359 1 3.13598 9.65166 4.78577
59 1 3.98435 8.96522 5.70037
261 1 4.37574 9.95663 4.88883
600 1 4.74811 8.85569 5.07196
599 1 5.29127 9.37714 4.48194
604 1 6.96039 9.39715 4.29043
598 1 6.04482 8.67386 4.4786
368 1 6.19485 9.62853 5.11696
367 1 7.08494 9.31089 5.381
597 1 5.82639 8.70884 5.37541
585 1 8.00888 8.96991 5.41522
583 1 8.92647 9.85166 4.60455
914 1 9.17484 8.90633 4.95237
924 1 8.71598 9.67846 5.63998
913 1 10.119 9.2281 4.89583
1223 1 11.7704 9.37119 5.38032
1224 1 11.9069 9.11576 4.38855
1236 1 12.8303 9.29431 5.16702
1245 1 13.8153 9.26188 4.34376
1247 1 14.4621 9.44208 5.34308
1315 1 15.1569 9.3212 4.65746
1316 1 15.5553 9.71058 5.49391
1579 1 16.6923 9.15144 5.39671
1580 1 16.5814 9.59261 4.5782
1904 1 18.4047 9.33965 4.67194
1561 1 17.5607 9.77244 5.13303
1887 1 19.8612 9.66861 4.45631
1888 1 19.9652 9.06576 5.247
1895 1 19.2965 9.91675 5.47806
1872 1 20.835 9.25717 4.50918
1890 1 21.0573 8.65813 5.55146
1637 1 22.3452 9.16636 4.59371
1643 1 21.7641 9.61764 5.31129
1638 1 22.7835 9.19407 5.44056
2189 1 24.1574 8.95248 4.32428
1949 1 23.5404 9.6985 4.93126
1950 1 23.8128 8.97234 5.50192
2512 1 24.7191 9.49733 5.65068
2452 1 24.8737 8.60662 5.23013
2511 1 25.5334 9.40954 5.20049
2517 1 26.4911 9.0428 4.53228
2119 1 26.6299 8.98692 5.67789
1975 1 27.2175 9.61053 4.97044
2458 1 28.4126 8.88525 4.76989
2120 1 27.5873 8.63902 5.69536
2527 1 28.84 9.89127 4.42632
2291 1 29.6876 9.30002 4.77636
300 1 0.652843 0.475136 5.87758
2377 1 0.284527 1.08929 7.03572
40 1 1.60505 1.32254 5.79662
70 1 2.30317 0.58314 6.39996
364 1 4.0279 0.00542677 5.95119
67 1 4.12623 0.745755 6.69678
374 1 5.55733 1.17075 6.57978
363 1 4.72902 0.603994 5.7444
373 1 5.93469 0.625532 5.84437
618 1 6.9746 0.257386 5.81392
323 1 7.10137 1.30825 6.93742
622 1 8.0348 0.770981 6.47829
681 1 8.84737 0.939741 5.98801
698 1 9.72352 0.128486 6.74556
674 1 10.7067 0.677276 6.55402
1238 1 12 1.21461 5.77098
1572 1 12.6922 0.666554 6.63004
1571 1 13.6982 0.819277 6.61839
1322 1 14.5459 0.278443 6.69078
1332 1 14.7998 1.18935 5.8676
1331 1 15.3217 1.07712 6.71226
1323 1 16.6296 0.12375 6.45444
1333 1 16.2558 1.398 6.54801
1661 1 17.3999 0.748735 5.86848
1662 1 17.1896 0.86693 6.8116
1897 1 18.1821 0.707029 6.67369
1657 1 19.9389 0.648592 5.79372
1898 1 19.0906 0.204225 6.53873
1655 1 19.8287 1.30665 6.63513
1720 1 20.816 1.17785 6.20264
1737 1 21.2896 0.0783274 6.71139
1738 1 20.3438 0.282188 6.63559
1647 1 21.684 0.87974 5.81214
2210 1 22.2494 0.6865 6.80331
1980 1 21.476 1.1822 7.09822
1954 1 23.2256 0.719585 6.39886
2224 1 24.1748 1.01187 6.93405
1922 1 24.4164 0.288125 6.20542
2223 1 25.0584 0.570875 7.09199
1978 1 25.9506 0.907823 6.72721
2531 1 26.0806 0.0165281 7.12281
2242 1 28.1354 1.00344 6.87088
2241 1 27.3697 0.713412 6.41632
299 1 29.8656 1.0033 6.02806
2283 1 29.7607 0.0204247 6.66606
301 1 0.365431 2.04088 6.0378
302 1 1.02841 1.69861 6.65492
143 1 1.0426 2.65516 6.70077
48 1 2.05588 2.42032 6.22113
69 1 2.07185 1.45538 6.91976
62 1 2.96503 1.86084 6.25593
197 1 3.80648 2.78099 6.18876
365 1 4.53133 1.82297 6.50087
438 1 5.69628 2.06263 6.10331
198 1 4.81723 2.69195 6.2488
324 1 6.6898 1.46535 6.12434
759 1 6.85808 2.56159 5.77008
792 1 6.85921 2.40428 6.84946
689 1 8.3199 1.86882 6.81429
684 1 7.68564 1.56529 6.03673
668 1 7.83527 2.79056 6.35464
690 1 8.72528 2.27992 6.07598
641 1 9.74051 1.57442 6.47467
673 1 11.0831 1.47265 6.42971
642 1 10.3072 2.37565 6.51096
1070 1 12.7906 1.89042 6.59286
1013 1 11.6062 2.47067 6.0826
678 1 13.3838 1.57454 5.74952
1069 1 13.5567 2.52273 6.70681
1021 1 14.1819 1.74713 6.68593
1089 1 15.4991 2.25105 6.3044
1334 1 16.555 2.11504 5.98453
1320 1 17.9877 2.12774 5.94326
1366 1 17.2025 1.89929 6.74818
1326 1 18.8713 2.21374 6.52459
1410 1 19.8926 2.5104 6.33509
1409 1 20.7513 2.27231 6.69922
1636 1 22.4904 1.59137 5.80702
1986 1 21.8116 2.5834 6.62281
1653 1 23.0417 2.38025 6.24902
1957 1 23.7493 2.79606 7.00435
1951 1 24.09 1.72284 6.03716
1646 1 23.0393 1.6593 6.91582
1952 1 25.0463 1.46441 6.07146
1972 1 24.8704 2.27339 6.76667
1974 1 25.9946 1.79382 6.1183
2373 1 27.0919 1.79608 6.46452
1967 1 26.0039 2.82113 6.44891
2286 1 27.8546 2.27838 5.73798
2374 1 27.1882 2.72283 6.42596
2310 1 28.2939 2.1962 7.00325
2303 1 28.8446 1.4412 5.89134
2383 1 29.3376 2.74691 6.23629
141 1 0.986761 3.35831 5.87836
142 1 0.159149 3.50471 6.2549
150 1 1.22009 3.77686 6.91158
125 1 2.32072 4.0272 5.74472
47 1 1.95131 3.34533 6.44624
51 1 2.91425 3.22257 6.00988
52 1 2.92046 3.21162 7.06022
457 1 3.72192 3.90595 6.41411
458 1 4.50237 3.46133 6.86913
440 1 6.41395 3.94267 5.71787
449 1 6.05209 3.12544 6.53875
456 1 6.98788 3.43387 6.52296
694 1 8.46464 4.01885 6.70157
762 1 9.22391 3.55336 5.72055
675 1 8.76655 3.11656 6.95149
783 1 9.75634 3.41401 6.61951
777 1 10.9465 3.76831 6.22619
1096 1 12.5089 2.98438 6.94218
771 1 11.9926 3.96899 6.12833
1161 1 14.0403 3.08366 5.76648
1082 1 13.0101 3.00141 5.85672
1172 1 13.2742 4.16214 6.54451
1150 1 14.027 3.59921 7.02725
1133 1 15.0935 3.65689 5.80879
1149 1 14.6229 2.88865 6.68436
1506 1 14.9078 4.25897 6.96273
1418 1 15.6773 2.97337 7.08897
1412 1 17.1067 2.94403 5.74267
1084 1 16.3319 3.61963 6.49114
1164 1 16.5608 4.24988 5.73497
1083 1 16.9683 3.50741 7.13787
1163 1 17.3332 3.87361 6.19501
1751 1 18.529 3.28344 6.22955
1427 1 17.898 3.08484 7.07518
1670 1 19.322 3.15746 6.82173
1726 1 19.1735 4.09014 5.91897
1664 1 21.1457 4.22396 6.26198
1688 1 20.0926 3.86678 6.71855
1690 1 21.1606 3.41674 6.8152
1689 1 22.0429 3.61868 6.42082
1970 1 24.2628 3.0419 5.97905
1969 1 23.3744 3.41669 6.0606
1958 1 23.0545 3.44269 7.06593
2064 1 23.8947 3.96186 6.80966
2045 1 24.914 3.97725 6.05598
2063 1 24.7685 3.48757 7.0218
2137 1 26.7063 3.48811 6.83846
2138 1 25.808 3.83041 6.74958
2372 1 27.584 3.68171 6.01904
2381 1 28.3934 4.23046 6.85488
2382 1 28.2985 3.33465 6.72109
2384 1 29.2669 3.61158 5.77441
149 1 1.24325 4.45619 6.15235
2454 1 0.0834745 4.45124 6.02656
134 1 0.646886 5.28301 6.38114
133 1 0.44583 4.55179 6.90459
547 1 2.61342 4.3745 6.80991
469 1 2.58861 5.37094 6.63775
236 1 1.77948 5.2916 5.80246
192 1 3.08461 4.82895 6.02439
518 1 4.09383 4.82277 6.59922
517 1 4.89838 4.37171 6.38247
521 1 5.09546 5.33757 6.40856
439 1 5.80423 4.68966 5.79388
763 1 6.73378 5.27201 5.81793
464 1 5.90108 4.51864 6.88602
764 1 6.21588 5.48824 6.58887
455 1 7.29632 4.33953 6.33621
693 1 8.4601 4.33312 5.81799
443 1 7.80775 5.17875 6.76951
769 1 9.55456 5.16142 6.28126
765 1 8.98963 4.86085 7.02324
770 1 10.0985 4.43991 6.6896
1103 1 11.1792 5.00082 6.68212
1093 1 11.7109 5.5653 5.80656
772 1 12.3707 4.87993 6.32439
1104 1 11.8534 4.55806 7.11983
1171 1 13.3953 4.8442 5.87698
1192 1 13.8216 4.82329 7.02056
1505 1 14.3332 4.38605 6.19085
1191 1 14.5282 5.50764 6.89338
1501 1 15.6137 5.24836 6.94239
1414 1 15.7278 4.62435 6.1883
1413 1 16.6013 4.99094 6.33414
1665 1 17.9539 5.40197 5.98397
1666 1 18.1611 4.47775 6.16577
1423 1 17.5825 5.275 7.13094
1686 1 19.863 4.95834 6.58201
1405 1 18.8575 4.8497 7.03609
1663 1 20.723 5.08687 6.17786
1754 1 21.9649 4.79116 6.81832
1753 1 21.923 4.78156 5.79941
1684 1 23.0389 4.95113 6.89363
1963 1 23.47 4.89585 5.95109
2054 1 23.9352 5.37151 6.93375
1964 1 24.3683 4.72503 6.34591
1722 1 24.7814 5.70989 6.13605
2043 1 25.5232 4.89452 6.29732
2044 1 25.049 4.7139 7.11178
1811 1 26.1898 4.76325 7.0535
1812 1 26.4759 4.35456 6.19098
2449 1 26.6875 5.41664 5.91152
2371 1 27.4006 4.53622 6.46073
2466 1 28.7224 4.73191 6.03163
2453 1 29.4756 4.37116 6.76448
114 1 0.0421611 6.32747 6.09449
235 1 1.52108 5.75248 6.67218
206 1 2.24571 6.3075 6.01458
220 1 4.05714 5.99069 6.31261
205 1 3.13122 6.47969 6.24724
285 1 3.78275 6.97865 7.13628
839 1 5.00641 6.53882 6.32957
840 1 5.78068 6.17995 5.85803
608 1 6.57615 6.74829 6.3617
849 1 7.07422 6.02531 7.02764
828 1 7.60316 6.09776 6.06558
526 1 7.92914 6.88225 6.65446
832 1 9.7247 6.14703 5.83564
851 1 8.69199 6.31937 5.98226
852 1 8.70255 5.7679 6.77414
822 1 9.38999 7.06445 6.35175
922 1 10.6008 7.12991 5.98417
843 1 10.6251 5.85757 6.18432
844 1 10.4371 6.45924 6.99317
1155 1 11.6179 6.30066 6.56056
1154 1 12.3484 6.60325 5.81931
854 1 12.5554 6.94397 6.77571
1182 1 12.6673 5.79604 6.52606
1181 1 13.6017 6.02992 6.61601
940 1 13.6886 7.07093 6.9978
1178 1 14.8905 5.91064 5.94585
1256 1 14.5387 6.98424 6.34837
1415 1 15.5757 6.90796 6.42647
1416 1 15.9952 6.07379 6.151
1507 1 16.9773 6.06543 6.66342
1500 1 16.7195 6.80733 5.90027
1508 1 16.2611 6.59029 7.02418
1744 1 17.7732 6.35367 5.97938
1743 1 18.1284 6.5259 6.84168
1823 1 17.1745 7.10936 6.84571
1422 1 18.75 6.76066 6.02329
1802 1 19.9746 7.04865 6.09464
1477 1 19.0728 5.79638 6.23896
1826 1 19.175 6.5885 6.85713
1735 1 19.9846 6.10867 6.723
1724 1 20.959 6.0732 6.3307
1740 1 22.1985 5.88239 6.52514
1879 1 22.2651 6.86109 6.7024
1721 1 23.9422 5.80931 5.72758
2113 1 22.977 6.63265 5.74999
2053 1 23.4333 6.14213 6.94708
2116 1 24.0809 6.63227 6.18364
2149 1 24.2621 7.10076 7.04989
2134 1 25.7025 6.17319 6.08949
2115 1 24.9864 6.88635 6.22925
2450 1 26.6525 6.09437 6.58176
2139 1 26.4157 7.07262 6.11283
2435 1 27.5487 6.40563 6.16185
216 1 28.4831 6.00462 6.51386
215 1 29.1781 5.82414 5.90392
2204 1 28.6317 6.99374 6.1348
213 1 0.505561 7.56897 5.76956
224 1 1.39993 7.44198 6.37027
222 1 0.247104 7.16573 6.84353
218 1 0.0642702 8.04377 6.49831
223 1 2.12493 7.88779 6.90912
227 1 2.58567 7.32709 6.16721
2307 1 1.47871 8.27357 5.83213
295 1 2.58436 8.41538 6.08309
270 1 4.0112 7.25362 6.26679
228 1 3.1172 7.82464 6.76426
60 1 4.06939 8.4064 6.50938
611 1 4.95094 7.84937 6.31445
581 1 6.1211 7.87684 6.02649
607 1 5.88837 7.26129 6.80447
927 1 6.63837 8.30636 7.05693
928 1 6.97194 7.46239 6.99155
915 1 7.4258 7.54933 6.0063
586 1 8.04665 8.34029 6.21989
834 1 9.12528 8.07012 6.02283
821 1 9.80728 7.8194 6.66863
857 1 8.63067 7.70969 7.02518
936 1 11.3203 8.0078 5.84922
935 1 10.8359 7.99599 6.71321
1251 1 12.5406 7.56455 5.72198
853 1 11.9288 7.6656 6.5086
1266 1 13.5274 8.54166 5.99684
1166 1 14.2507 8.00133 6.98763
1265 1 13.1163 7.87096 6.62417
1335 1 15.4357 8.01812 6.70404
1575 1 14.7655 8.4567 5.95634
1588 1 16.631 7.98971 6.49233
1806 1 17.7681 7.48594 6.15509
1494 1 17.696 8.50997 6.39607
1825 1 19.1704 7.49794 6.98711
1816 1 18.6213 8.34384 6.54887
1603 1 19.7527 8.41259 7.05186
1793 1 21.078 7.46521 6.25188
1794 1 20.6621 7.69768 7.05422
1884 1 22.1128 7.47727 5.7694
1889 1 21.9272 8.47656 5.78487
1875 1 21.7594 8.36431 6.88948
1886 1 22.7363 8.03346 6.28992
2195 1 23.5733 8.56985 6.78608
1786 1 23.5596 7.64033 5.83284
1785 1 23.2948 7.21553 6.69963
2201 1 24.4437 8.0864 6.06144
2207 1 25.4898 7.73852 6.13805
2141 1 25.0724 8.08469 7.0411
2302 1 26.8587 8.02888 6.15514
2301 1 26.4111 8.28432 6.93466
2440 1 28.5167 8.35489 5.9731
2455 1 27.2733 7.21067 6.6911
217 1 29.191 7.79203 6.57547
2525 1 1.35018 8.71548 6.74242
2312 1 0.977145 9.96907 6.84727
2516 1 0.362517 9.0092 6.84504
315 1 1.83045 9.6152 6.06988
316 1 2.04783 9.65826 6.97722
296 1 2.80712 8.86403 6.9037
50 1 3.11378 9.35396 5.9933
388 1 3.37053 9.8647 6.97299
355 1 4.94418 9.20643 5.95603
623 1 4.88771 8.94644 6.95658
356 1 5.22795 9.99264 6.45499
624 1 5.74812 8.70318 6.68186
945 1 6.18635 9.72428 6.69979
946 1 6.7345 8.99417 6.31036
617 1 7.61927 9.72904 6.30266
838 1 9.03369 8.72651 6.83045
923 1 9.54922 9.18366 5.84898
697 1 8.7854 9.98198 6.82671
837 1 9.99549 8.92434 6.76794
1012 1 11.3311 9.80891 6.57901
669 1 10.5243 9.74133 5.73603
670 1 10.8414 8.86158 6.08606
1241 1 12.3685 8.6116 5.99558
1568 1 12.3837 9.64839 6.6743
1487 1 13.3864 9.80956 6.98939
1488 1 13.3457 9.70595 6.02122
1258 1 15.3009 9.04967 7.04753
1257 1 14.3795 9.03309 6.80507
1324 1 15.7079 9.97061 6.47774
1493 1 16.9425 9.09411 6.43661
1336 1 15.955 8.7462 6.25978
1581 1 17.5377 9.75271 6.92736
1582 1 18.0009 9.83948 6.05306
1819 1 19.8323 9.3355 6.38101
1815 1 18.8585 9.10121 5.99936
1891 1 18.8971 9.22302 7.0521
1820 1 20.6216 8.82027 6.58616
1644 1 21.915 9.37993 6.22122
2196 1 22.8416 9.06034 6.42911
1921 1 24.0365 9.96103 7.02098
2209 1 22.8638 9.92872 6.94511
1953 1 23.4564 9.87617 6.11944
1984 1 25.4361 9.97396 6.26341
2208 1 25.3511 8.72332 6.16045
2125 1 25.2535 9.18604 7.10688
2126 1 24.5102 9.10858 6.53469
2532 1 26.4669 9.92669 6.21894
2216 1 26.8729 9.3941 7.06589
2297 1 28.5279 9.66011 6.1048
2521 1 27.4776 9.65925 6.14455
2522 1 27.7731 8.93976 6.6707
2298 1 28.4016 9.83313 7.03436
2294 1 29.5369 9.57994 5.79578
2515 1 29.4566 8.78681 6.85352
66 1 1.2872 1.02815 8.53151
2305 1 0.301169 0.866738 8.44389
2311 1 1.45319 0.726571 7.27266
74 1 2.23924 0.79488 8.01912
1 1 3.02181 1.32938 7.21487
2 1 3.49599 0.679317 7.79227
453 1 5.6833 1.26092 8.25126
605 1 4.73809 0.809716 7.80845
371 1 5.44314 0.129504 7.55953
372 1 6.21282 0.647115 7.39013
390 1 6.75891 0.475007 8.3302
621 1 8.11893 0.56798 7.4798
704 1 8.40835 0.766212 8.48653
699 1 9.42505 0.152654 7.95596
679 1 9.11912 1.30742 7.51086
1018 1 10.0978 1.04224 7.3829
696 1 10.0606 0.888585 8.54962
933 1 10.8028 0.232054 8.30577
1011 1 11.8305 0.365296 7.16919
1261 1 11.542 0.869803 7.90338
1087 1 12.4436 1.32473 7.40473
1591 1 13.0077 0.393857 7.83774
1337 1 14.0708 0.0428059 8.54465
1009 1 15.4441 0.23844 7.56228
1023 1 14.4442 0.942285 7.74761
1010 1 16.1429 0.91656 7.50813
1349 1 17.8336 0.555021 7.69889
1899 1 19.7045 0.622009 7.55815
1656 1 20.4872 1.34316 7.34511
2220 1 21.354 0.960062 8.07755
1652 1 20.2541 0.705912 8.42365
1694 1 22.3549 1.21003 8.52841
2219 1 22.1314 0.439927 7.80061
2218 1 23.1132 0.737733 7.58242
2217 1 23.5933 0.0215943 7.93991
1993 1 24.2924 0.866546 8.04376
1994 1 25.0339 0.227009 8.10091
1990 1 25.849 0.875198 7.99493
1977 1 26.7091 1.23409 7.23292
1924 1 26.7098 1.00774 8.47199
2530 1 27.9541 0.61422 7.97861
2529 1 27.6074 1.41599 8.33453
1997 1 29.1507 0.909754 8.21789
2378 1 0.887351 1.57148 7.67527
2399 1 0.0753697 2.37002 7.2697
81 1 1.02294 2.65373 7.89432
82 1 0.476757 2.22638 8.52371
75 1 2.73294 2.17468 8.40554
144 1 1.88943 2.59038 7.26639
76 1 1.84651 1.81659 8.20637
68 1 4.01969 1.48016 7.30876
307 1 3.41457 2.37297 7.41957
79 1 3.96174 1.47857 8.43477
366 1 4.9736 1.82105 7.37325
450 1 5.4964 2.78646 7.22665
308 1 4.31932 2.46473 7.71174
707 1 6.68697 1.77732 7.97732
708 1 6.05253 1.9127 7.33239
452 1 6.03267 2.49795 8.15393
702 1 7.93742 2.50668 7.69503
703 1 8.43884 1.71256 8.27077
767 1 7.19138 2.40027 8.54217
676 1 9.2486 2.41578 7.2551
680 1 9.43371 1.87496 8.16923
1116 1 8.82716 2.83466 8.4557
1017 1 10.9494 1.58027 7.41745
1092 1 11.0517 2.78038 8.02174
1268 1 11.3489 1.80925 8.48661
1006 1 10.0381 2.65175 8.46987
1263 1 12.0921 2.28586 7.75006
1088 1 12.3165 1.43401 8.3637
1022 1 13.5874 1.48566 7.47624
1024 1 14.0304 1.45075 8.45763
1264 1 13.0069 2.30815 8.04982
1016 1 13.9048 2.83611 7.68066
1015 1 14.4666 2.03371 7.76986
1028 1 15.4933 1.8764 7.46974
962 1 15.0476 2.73031 8.2752
1027 1 15.2621 1.60172 8.40391
1365 1 16.5107 2.24387 7.28874
1345 1 16.3031 2.01782 8.24231
1346 1 16.958 1.51089 7.85289
1667 1 18.1273 1.64254 7.72304
1428 1 17.4022 2.84316 7.75074
1325 1 18.7006 2.53551 7.43067
1906 1 19.9023 1.92688 8.2022
1668 1 18.8915 1.4879 7.33905
1905 1 19.6473 2.09704 7.25301
1747 1 20.4138 2.78778 7.58944
1700 1 21.0547 1.94664 8.09416
1979 1 22.0563 1.71973 7.62754
1645 1 22.7593 2.46642 7.31739
1996 1 22.4077 2.3523 8.37416
2214 1 24.1562 1.90722 7.57536
2213 1 24.1677 1.98512 8.50874
2056 1 23.1504 1.67982 7.98107
1971 1 25.1662 1.60999 7.49003
1981 1 25.5008 2.44155 8.43817
2075 1 25.2347 2.7685 7.49132
1968 1 26.1922 2.2031 7.21486
1923 1 26.4712 1.84237 8.19343
2380 1 27.0456 2.6618 8.45705
2379 1 27.2831 2.45854 7.5021
1998 1 28.6593 1.82235 8.33888
2309 1 28.9365 2.78372 7.49501
2400 1 29.5688 2.41499 8.08305
72 1 1.35026 4.25608 8.27306
2472 1 0.272318 3.25489 7.90609
160 1 2.06089 2.9572 8.19064
159 1 2.14779 3.66914 7.56937
548 1 3.32715 4.0636 7.48281
524 1 4.10535 3.47511 7.93541
405 1 3.12459 3.56358 8.49185
523 1 4.99599 3.86725 8.09019
463 1 6.07335 3.80469 7.39947
791 1 7.02072 2.95953 7.53273
877 1 7.01857 4.15999 7.42581
378 1 5.98896 3.44546 8.50953
701 1 7.90194 3.41562 7.41231
784 1 9.38167 3.60184 7.5152
774 1 8.69382 3.85085 8.56263
1105 1 10.64 3.79579 7.32417
1095 1 11.5732 3.20242 7.2731
1091 1 11.5221 3.67212 8.17105
1099 1 13.1087 3.39526 7.70436
1512 1 14.1478 3.97394 7.9349
1511 1 14.8689 3.468 7.57873
1378 1 15.4703 3.96236 8.55813
1436 1 16.5206 3.16122 8.04995
1417 1 15.927 3.84815 7.44296
1518 1 17.4756 3.87932 8.29014
1517 1 18.3129 3.77219 7.92778
1748 1 19.6007 3.23072 7.82036
1669 1 19.0545 3.94499 7.29261
1284 1 19.7519 4.1527 8.53863
1682 1 21.0268 3.89374 7.72652
1681 1 20.6682 3.32772 8.43082
1985 1 21.5926 2.87624 7.55381
1755 1 22.4434 4.17981 7.67615
2059 1 21.8573 3.54862 8.29005
2060 1 22.7952 3.49026 8.55497
2071 1 23.9826 3.34669 8.29482
2093 1 23.4425 4.2488 8.18217
2072 1 24.4235 4.15951 7.92778
2057 1 25.6959 4.15897 7.86513
2076 1 26.139 3.21716 7.72346
2058 1 26.6054 4.16791 8.06581
2061 1 27.5225 3.4677 7.55646
2393 1 28.0944 2.8803 8.29221
2471 1 29.628 3.36093 7.14772
145 1 28.5892 3.77063 7.95949
2324 1 29.6475 4.27628 7.74873
2323 1 0.308136 4.89033 7.93159
140 1 1.03337 5.56914 8.26501
147 1 2.59393 4.94892 7.62324
148 1 1.7386 4.6015 7.35423
136 1 2.10747 5.15897 8.48107
153 1 4.20329 4.54615 7.69964
154 1 3.73303 5.33217 7.44506
533 1 4.9819 5.28359 7.45467
528 1 5.12951 5.23274 8.51658
527 1 5.86491 4.84172 8.08008
878 1 6.91981 4.42009 8.39895
850 1 6.64094 5.3954 7.5567
773 1 8.47325 4.29188 7.76145
444 1 7.63466 5.10008 7.73317
766 1 8.77203 5.38742 7.76703
848 1 9.60352 4.57578 7.77521
847 1 10.0516 5.3581 7.32138
1106 1 10.8821 4.6523 7.59703
787 1 10.9268 5.58779 8.15087
1108 1 12.1669 5.68344 7.3381
1107 1 12.187 5.07636 8.11339
1100 1 12.8035 4.31133 7.53427
1176 1 13.2041 5.31605 7.79653
1020 1 13.1853 4.52866 8.53977
1117 1 14.4306 5.64885 7.96117
1118 1 14.8477 4.74201 8.05685
1426 1 15.8224 4.77571 7.87839
1425 1 16.7162 4.45802 7.58118
1502 1 16.4152 5.55766 7.33733
1042 1 15.8437 5.68616 8.24411
1361 1 17.0621 5.26757 8.26945
1424 1 17.8743 4.31338 7.24008
1439 1 18.1766 4.91269 8.04156
1406 1 18.5466 5.69462 7.32783
1440 1 19.0875 4.80826 8.0874
1685 1 19.865 5.32601 7.48008
1687 1 20.0423 4.29897 7.53017
1746 1 20.8338 4.76822 7.15636
1745 1 20.7544 4.83534 8.08512
1749 1 21.6721 5.69192 7.77292
1756 1 21.8068 4.75272 8.07364
1683 1 22.7743 5.29978 7.74147
2136 1 24.4145 5.44752 7.91352
2004 1 25.4816 5.13783 8.19422
2074 1 25.579 5.68558 7.35995
2048 1 26.6568 5.29427 7.91928
2047 1 27.5081 5.49098 7.60347
2062 1 27.675 4.39312 7.5189
2476 1 28.3618 5.60494 8.05351
146 1 28.5033 4.62173 8.32598
2375 1 29.7177 5.57681 7.14903
2376 1 28.8878 5.0651 7.26436
2461 1 0.719658 6.80709 8.09635
2462 1 0.705975 6.31803 7.23443
470 1 2.81071 5.99818 7.26524
139 1 1.69805 5.79145 7.66751
174 1 2.32605 6.23379 8.28492
231 1 2.52189 7.06641 7.63851
232 1 1.61232 6.81159 7.32055
540 1 3.34701 6.29656 7.9965
519 1 4.20974 6.21214 8.51552
286 1 4.57281 6.48137 7.40347
534 1 5.60504 6.01163 7.47877
609 1 5.49525 6.95454 7.75239
535 1 5.90453 6.0687 8.5058
610 1 6.48165 6.74779 7.70302
560 1 7.47971 6.28266 8.11361
525 1 8.20655 6.32235 7.37713
1184 1 9.75126 6.09194 8.2641
1183 1 9.68042 7.09508 8.41072
858 1 9.09681 6.90413 7.38279
932 1 11.2761 7.04687 7.33048
931 1 11.5295 6.48172 8.04531
1187 1 12.569 7.10846 8.49833
1175 1 13.0004 6.24985 7.75916
1193 1 13.4551 7.10482 8.08258
1041 1 15.2948 6.13579 7.5846
939 1 14.3797 6.63736 7.46031
1253 1 15.007 6.62474 8.45969
1509 1 16.4063 6.7608 8.08428
1429 1 17.4628 6.28386 7.56863
1430 1 18.0229 5.97797 8.24651
1851 1 19.1957 5.89086 8.21241
1831 1 18.5911 6.82285 7.84036
1736 1 19.8691 6.4737 7.60973
1750 1 20.8449 5.84362 7.37191
1803 1 21.3712 6.78937 7.24319
2083 1 20.057 6.13212 8.54621
1809 1 20.5574 7.03576 8.09002
1804 1 22.1972 6.60667 7.69757
2135 1 24.0189 6.34526 7.86282
1814 1 23.2284 7.05245 7.81907
2073 1 24.9296 6.31066 7.19598
2152 1 25.089 6.25619 8.50883
2156 1 26.0921 7.13497 8.35942
2456 1 26.542 7.10907 7.18636
2086 1 26.2017 6.19463 8.17896
2154 1 27.9449 6.63817 7.26415
2153 1 27.1723 6.54484 7.82004
2463 1 29.7144 5.81631 8.21854
2475 1 28.7733 6.2669 7.5569
221 1 0.886077 7.74976 7.26576
311 1 0.516854 8.04046 8.15869
161 1 1.55019 7.78162 8.05774
318 1 3.86377 8.08172 7.67013
539 1 3.43163 7.21281 8.36269
317 1 2.95223 8.13678 7.79375
612 1 4.80487 7.58357 7.23957
619 1 4.46713 7.30173 8.25649
298 1 4.84174 8.39334 7.87623
297 1 5.75823 8.04774 7.70119
876 1 6.93413 7.76902 8.04188
614 1 7.76845 8.20762 7.4945
948 1 8.2845 8.22152 8.31058
875 1 7.70475 7.28668 7.77857
929 1 8.69518 7.22405 8.23071
692 1 9.37824 7.8975 7.63861
691 1 10.2127 7.57238 7.68263
942 1 11.273 8.39129 8.18864
869 1 10.8806 7.43371 8.4343
1244 1 12.0292 8.38991 7.22011
870 1 11.7307 7.5311 8.09479
1274 1 12.7834 7.84637 7.69724
1179 1 13.4842 8.54005 7.43788
1165 1 14.9586 8.2378 7.62272
1344 1 15.4032 7.16332 7.54066
1343 1 15.9705 7.99246 7.55346
1584 1 16.6105 8.0517 8.43202
1824 1 17.958 7.56182 7.27442
1510 1 17.2174 7.24906 7.92477
1587 1 17.1572 8.22499 7.29523
1910 1 18.7316 8.2371 7.91225
1832 1 19.3063 7.30182 8.12793
2147 1 21.2986 7.61152 7.82077
1828 1 20.0812 7.99754 8.04409
1880 1 22.4872 7.50982 7.30328
2225 1 22.2703 8.19344 8.28256
1760 1 22.1611 7.14613 8.5702
2150 1 24.0289 7.75111 7.68182
2143 1 23.38 8.50605 8.31976
2142 1 25.4837 7.24082 7.16552
2221 1 24.9478 7.3938 8.17399
2227 1 25.8841 8.50079 7.80414
238 1 27.907 7.78506 7.33202
2299 1 27.3081 8.44145 7.83275
2300 1 28.0227 8.03062 8.3746
237 1 28.7937 7.56171 7.62588
2408 1 29.8209 7.20711 8.45615
312 1 29.8334 7.76813 7.54738
2289 1 0.474391 9.64279 7.96892
2290 1 1.42249 9.88854 7.84462
63 1 2.67223 9.82447 8.01577
2526 1 1.57601 8.71789 7.66656
55 1 3.52631 9.25786 7.91752
387 1 4.31617 9.79806 7.30485
379 1 5.53756 9.15438 7.68246
629 1 4.68141 9.72285 8.38648
380 1 6.42002 9.5932 7.83255
626 1 7.32261 8.91059 8.27187
613 1 7.46009 9.11867 7.17049
687 1 8.42084 9.22015 7.77898
947 1 9.06132 8.6996 8.51803
688 1 9.39979 9.0852 7.6235
1243 1 11.2599 8.99097 7.26537
700 1 10.2102 9.86013 7.55499
941 1 10.47 8.76839 7.83602
1567 1 12.473 9.43316 7.60674
1004 1 11.7118 9.90092 8.23242
1273 1 12.5681 8.59346 8.33424
1180 1 13.3741 9.31463 8.1457
1321 1 14.428 9.7401 7.4976
1594 1 15.0699 9.67465 8.46593
1593 1 15.4622 8.80406 8.43107
1342 1 16.2806 9.00487 7.77282
1341 1 16.4655 9.89213 7.49822
1912 1 17.4872 8.68815 8.16252
1350 1 17.4381 9.70395 7.98583
1911 1 17.9975 8.93405 7.42346
1892 1 18.9617 9.82607 7.79151
1604 1 19.5871 8.87072 7.9041
2148 1 21.0879 8.58468 7.75937
1900 1 20.1921 9.79864 7.61809
2229 1 21.1133 9.79308 8.13414
1876 1 21.786 9.3021 7.27463
2232 1 22.2206 9.36084 8.26322
2231 1 22.8679 9.12461 7.52087
2205 1 24.1527 9.01624 7.82633
2206 1 25.0224 8.96473 8.24557
2215 1 26.8555 9.95416 7.82668
2484 1 25.868 9.68696 8.14581
2487 1 27.8423 9.40712 7.75241
2284 1 29.4516 9.65267 7.51777
2488 1 28.6775 9.52745 8.23336
2524 1 28.6524 8.67664 7.48812
2523 1 29.4681 8.66733 8.01018
3 1 0.567477 0.545 9.77067
65 1 0.941333 0.156715 8.83083
306 1 1.48983 0.955899 9.47972
11 1 2.45411 0.85128 9.60744
64 1 2.16845 0.0658546 8.82319
73 1 2.94048 0.934045 8.74064
639 1 3.47358 0.670846 9.97974
6 1 3.73461 0.105433 8.84282
77 1 4.0882 1.3663 9.46416
606 1 4.66308 0.804912 8.73429
386 1 5.44309 0.923735 9.44162
385 1 5.61759 0.231942 8.87931
712 1 7.14143 1.33916 8.80568
384 1 6.49957 0.886722 9.85892
389 1 7.2009 0.129116 9.09034
926 1 8.16629 0.0568119 9.47786
715 1 8.99829 0.656165 9.3193
1025 1 10.9261 0.942755 9.16875
1038 1 10.343 0.181096 9.83203
1026 1 11.234 0.00477092 9.16979
1262 1 11.8279 0.737253 8.79644
1592 1 13.081 0.725289 8.76534
1355 1 14.0004 0.66935 9.31585
966 1 13.0653 0.159728 9.72496
1030 1 12.9519 1.27869 9.93064
963 1 15.6987 0.563937 9.4797
1338 1 14.8903 0.65886 8.61378
964 1 15.0391 1.20418 9.49698
1577 1 16.0476 0.694328 8.62831
1357 1 16.7568 0.33763 9.48675
1329 1 18.0892 1.04055 8.6766
1330 1 17.2413 0.623907 8.58308
1358 1 17.7133 0.500317 9.63679
1758 1 19.3332 0.58422 9.00752
1618 1 18.7274 1.04592 9.867
1676 1 20.3369 0.687007 9.62641
1651 1 21.0755 0.480098 8.91104
1901 1 22.4924 1.14804 9.64921
2092 1 22.163 0.216417 9.13683
2238 1 23.1967 0.686787 8.58497
1915 1 22.8646 0.0927839 9.91326
2237 1 23.6024 0.809332 9.46023
1991 1 24.5919 0.968754 9.65225
1999 1 25.134 0.202338 9.20848
1989 1 25.3286 1.33685 8.63096
1935 1 26.1543 0.445197 9.7808
2483 1 26.4856 0.0142061 8.77415
2321 1 27.5146 1.04923 9.30814
2481 1 28.4206 0.984521 8.92714
2270 1 28.6008 0.882393 9.92104
2269 1 29.5407 0.950752 9.61611
2306 1 29.7678 0.0989691 8.81096
2482 1 28.7518 0.0794856 9.13507
157 1 1.37059 2.45902 8.99148
305 1 0.649269 1.49483 9.25355
478 1 2.2558 2.75377 9.30555
80 1 3.79189 2.47238 8.62405
395 1 3.01957 1.81126 9.51528
396 1 3.44782 2.66298 9.62846
454 1 5.09126 2.01201 8.61167
465 1 5.13002 1.82106 9.82521
472 1 4.61749 2.50389 9.3545
451 1 5.82807 2.5458 9.10267
383 1 6.21637 1.65812 9.33187
711 1 7.98205 1.4466 9.23532
950 1 7.42255 2.22237 9.76956
768 1 7.94906 2.76873 8.9968
713 1 9.26099 1.90147 9.25849
695 1 10.2639 1.71075 9.17219
1267 1 11.6814 1.66449 9.35826
1036 1 12.0972 2.49006 9.85153
1035 1 11.6005 2.72598 9.03107
1102 1 13.9474 2.40942 8.79771
1101 1 13.144 1.98384 9.0936
1340 1 13.9624 1.72288 9.66631
1044 1 13.0415 2.84974 9.87324
1339 1 14.649 2.34443 9.64775
1363 1 15.6519 2.5449 9.97819
1432 1 16.8529 1.50163 9.16483
1364 1 15.7749 1.93471 9.25754
1302 1 16.5341 2.56008 9.16195
1367 1 17.6036 2.53581 9.79153
1368 1 17.878 1.60193 9.52385
1431 1 17.3566 2.0912 8.58789
1285 1 18.5473 2.2893 8.6902
1757 1 19.2079 1.55443 9.0228
1606 1 19.8211 1.55255 9.73586
1286 1 18.5915 2.55998 9.58898
1610 1 19.5135 2.64503 8.89761
1605 1 20.4311 1.59557 9.00954
1696 1 20.4242 2.61001 9.89255
1699 1 21.0472 2.50347 8.85833
1693 1 21.6064 1.66186 8.96566
1995 1 22.4728 2.73298 9.21256
2055 1 23.2299 1.66747 8.92937
1902 1 22.8604 2.05241 9.82623
2069 1 23.3768 2.63845 8.85132
1992 1 24.0115 1.73723 9.84817
1982 1 24.9049 2.44442 9.14946
2008 1 25.5804 1.47949 9.92626
2080 1 26.7401 1.91404 9.2002
2079 1 25.9224 2.41673 9.49766
2322 1 27.6121 1.79778 9.83138
2390 1 27.6157 2.74248 9.28787
2243 1 28.5683 1.90879 9.56811
2249 1 29.6955 1.71415 8.81595
2250 1 29.745 2.52858 9.30561
158 1 0.795438 3.01572 9.6349
90 1 0.816514 3.55442 8.70887
132 1 0.030912 3.98154 9.03565
89 1 1.61825 3.54261 9.22231
416 1 2.5961 3.71547 9.5026
545 1 3.92723 3.55463 9.30408
471 1 4.99386 3.0735 8.65819
546 1 4.61145 4.11549 9.01053
543 1 5.35387 3.51978 9.54046
377 1 6.32229 4.03554 9.21603
468 1 6.60336 3.09932 9.61721
531 1 7.65196 3.77221 8.71727
786 1 7.43946 3.66331 9.94971
798 1 8.49471 3.48435 9.86881
1115 1 9.30915 3.31155 9.1304
1005 1 10.2633 2.9498 9.40754
1110 1 10.485 3.721 8.72905
855 1 10.5917 4.06243 9.69848
1058 1 12.0992 3.51388 9.6911
1019 1 12.4741 3.88252 8.63258
1047 1 13.0149 4.02329 9.59799
1031 1 14.0637 4.15767 9.00343
1032 1 13.5501 3.41495 8.69695
1051 1 14.0437 3.36771 9.85335
1437 1 15.1637 3.77212 9.8059
961 1 14.7193 3.28346 8.96917
1377 1 15.7813 3.20767 9.12352
1835 1 16.3039 4.09278 9.56981
1435 1 16.5364 4.02485 8.57339
1295 1 17.7673 3.67986 9.75476
1301 1 17.2757 3.11055 9.0592
1296 1 18.6924 3.55757 9.92322
1294 1 19.6863 3.52047 9.4767
1609 1 18.8062 3.32354 8.81087
1695 1 20.7529 3.58125 9.84553
2067 1 21.6679 4.12989 9.98552
2068 1 21.7055 3.57575 9.29504
1940 1 22.6433 3.68064 9.60994
2070 1 23.6692 2.94887 9.6579
2088 1 23.7132 4.0343 9.52587
2077 1 25.1926 3.44732 8.57842
2012 1 24.6703 3.6789 9.68547
2387 1 25.6997 3.72636 9.43943
2388 1 26.2113 3.50911 8.71079
2389 1 26.8275 3.25596 9.61521
2394 1 28.1245 3.69238 8.85765
131 1 29.2499 3.58857 8.87308
71 1 1.101 4.72324 9.05655
2464 1 0.181261 5.60985 9.0963
83 1 1.30232 5.42359 9.87773
2396 1 1.88995 4.67023 9.71303
226 1 2.80286 5.27529 9.60464
406 1 2.96355 4.48383 8.69619
135 1 2.96071 5.54574 8.59204
485 1 3.40748 4.38994 9.78078
551 1 4.00176 5.1724 9.26964
530 1 5.43783 4.6447 9.50299
529 1 6.15127 5.20611 9.29611
785 1 7.55847 4.4761 9.59025
532 1 7.91495 4.70359 8.62423
790 1 8.44371 5.453 9.09841
776 1 9.67253 4.2982 8.96458
795 1 8.69168 4.34737 9.47924
789 1 9.40421 5.42653 9.37027
775 1 9.92606 5.1839 8.58189
856 1 10.5518 5.01754 9.47953
1109 1 11.1003 4.51253 8.68848
1129 1 11.5498 4.68443 9.72377
1199 1 12.3296 5.53343 9.88289
788 1 11.5882 5.64624 8.87818
1130 1 12.3084 4.9057 9.20205
1111 1 13.5429 5.43297 9.01256
1112 1 13.717 4.90793 9.78047
1446 1 15.6138 5.38571 9.77454
1445 1 15.3043 4.71036 9.19759
1362 1 16.5098 5.07004 9.05562
1520 1 17.5684 5.31046 9.33506
1836 1 17.1991 4.33299 9.27572
1433 1 18.2323 4.75668 9.89853
1434 1 18.1779 4.34824 9.0174
1845 1 19.9884 5.49958 9.65868
1283 1 19.1058 4.53991 9.22212
1379 1 18.7309 5.66114 9.50155
1763 1 21.1356 5.36741 9.89878
1370 1 20.0286 5.06846 8.72145
1369 1 20.5318 4.46181 9.27905
1939 1 22.4288 4.36279 8.9922
1834 1 22.1345 5.05526 9.77339
1833 1 21.5219 4.79535 9.04099
2145 1 22.6285 5.44987 8.88848
2094 1 23.8711 4.79368 8.70407
1761 1 23.2311 4.7986 9.96373
2146 1 23.4728 5.67439 9.16989
2087 1 24.2815 4.79172 9.67093
2078 1 24.9396 4.32817 8.92979
2001 1 25.557 4.66096 9.81484
2151 1 24.7269 5.40789 8.9499
2329 1 26.822 4.66557 9.45864
2003 1 26.0172 4.61073 8.80679
2330 1 27.8 4.44547 9.522
2467 1 27.5759 5.11853 8.7212
2468 1 28.2558 5.47796 9.26067
86 1 29.3895 5.03606 9.65787
85 1 29.5304 4.89502 8.65402
2404 1 0.834358 6.50307 9.63014
230 1 1.83083 6.97412 9.33536
173 1 1.81451 5.93959 9.12326
225 1 2.60303 6.25667 9.71182
552 1 3.59625 6.03349 9.49215
520 1 4.07064 6.91901 9.14915
632 1 3.37661 7.05554 9.85455
536 1 5.17949 6.6025 8.8957
627 1 5.16057 5.76494 9.65486
954 1 6.16697 7.06834 8.73373
871 1 6.82096 6.22999 9.5316
872 1 5.89006 6.46989 9.65678
538 1 7.77899 6.69705 9.57691
930 1 8.3985 6.42479 8.63419
474 1 7.78133 5.72556 9.92116
559 1 7.44978 5.74954 8.891
554 1 9.1738 6.53508 9.47822
842 1 10.7066 6.2952 8.87191
841 1 10.2941 5.99973 9.73383
1276 1 10.2785 7.05159 9.42189
866 1 11.8398 6.59089 9.2067
865 1 12.6075 6.12049 8.74766
1196 1 13.3512 5.85737 9.98553
1194 1 13.6401 6.46895 8.76497
1530 1 14.1175 7.03298 9.67755
1195 1 13.1464 6.73082 9.58039
1596 1 15.3653 7.04092 9.3615
1120 1 14.5718 5.78244 9.05943
1046 1 16.3534 6.82641 9.40173
1045 1 16.7619 6.10277 8.97559
1830 1 17.8868 6.38666 9.38234
1852 1 18.9123 6.49459 8.94474
1846 1 19.9918 6.49443 9.4831
2084 1 20.9885 5.88286 8.59292
1810 1 21.1517 7.04831 8.84872
1817 1 21.8846 5.99363 9.41665
1818 1 22.6722 5.8602 9.95612
1759 1 22.5524 6.86371 9.40827
1813 1 22.9258 6.50256 8.57498
2132 1 24.0903 7.06063 8.59568
2131 1 23.695 6.70929 9.37553
2182 1 24.5633 6.0442 9.98775
2421 1 25.6712 5.78135 9.92476
2157 1 24.5581 7.13214 9.69868
2416 1 26.665 5.93178 9.86384
2155 1 26.2463 6.56744 9.13024
2085 1 27.045 5.97411 8.6421
2406 1 27.018 6.91845 9.96275
2470 1 28.0617 6.4563 8.74497
2469 1 29.0267 6.26591 8.8381
2494 1 28.7586 6.87724 9.63137
2478 1 29.8705 7.10627 9.51544
2477 1 0.668133 7.33469 9.00917
249 1 0.51787 8.20376 9.5138
250 1 1.32194 7.77103 9.78142
162 1 2.08663 8.30713 8.70107
229 1 2.45749 7.30828 8.66288
234 1 2.30209 8.19648 9.87722
310 1 3.11554 8.00578 9.21553
631 1 3.97149 7.78156 9.9208
620 1 4.10444 7.94167 8.93339
541 1 5.04031 7.45029 9.62652
601 1 5.36912 7.8898 8.68559
542 1 4.79676 8.36567 9.53924
953 1 6.26815 8.05252 8.81859
558 1 6.79131 7.45001 9.47779
557 1 7.08598 8.3313 9.18965
397 1 5.84975 8.52092 9.6241
537 1 7.5103 7.17043 8.76001
959 1 8.04334 8.18783 9.45333
960 1 8.50989 7.34255 9.39241
937 1 9.46033 7.7117 9.25441
882 1 11.0116 7.79177 9.39048
881 1 10.3372 8.15523 8.84989
1033 1 12.2604 7.5911 9.62991
1034 1 12.6169 8.46157 9.67467
1188 1 13.2293 7.67915 8.93841
1516 1 14.1078 8.08421 9.43279
1595 1 15.6375 7.4789 8.61918
1254 1 14.4984 7.41557 8.72297
1586 1 15.2972 8.13199 9.32246
1597 1 16.6012 7.86476 9.55326
1503 1 17.5861 7.60485 9.41426
1909 1 18.4808 7.68424 8.59769
1504 1 17.6198 8.54861 9.40961
1514 1 19.1787 7.29816 9.581
1908 1 18.6537 8.25037 9.66702
1822 1 19.5018 7.97218 8.89256
1821 1 20.3479 7.58054 9.28457
1842 1 21.8908 7.46671 9.9152
2226 1 21.6153 8.31899 8.99837
2239 1 22.8765 7.89669 9.87978
2144 1 23.0468 7.73043 8.82497
2081 1 23.786 8.26488 9.48112
2222 1 24.5714 8.18846 8.688
2158 1 25.3645 7.46741 9.19484
2492 1 26.923 8.18826 8.75685
2405 1 26.4994 7.51724 9.36354
2228 1 25.9228 8.33167 8.71074
2490 1 26.0082 8.56162 9.96793
320 1 27.769 7.4344 9.50157
2485 1 28.7144 7.24217 8.58663
2486 1 28.8131 7.86277 9.28806
2407 1 29.7047 8.07029 8.81476
2480 1 0.264832 8.89106 8.77151
314 1 1.53831 9.85486 9.70104
313 1 1.46765 9.05271 9.20801
233 1 2.4818 9.10967 9.73036
56 1 2.99806 9.09746 8.72065
392 1 4.1808 9.66287 9.74796
5 1 3.05968 9.95124 9.4968
309 1 3.64466 8.70922 9.51477
602 1 5.56608 8.87311 8.64036
630 1 4.32744 8.9341 8.77518
327 1 5.15803 9.4498 9.54686
328 1 6.08588 9.63098 9.71207
561 1 6.5587 9.14449 8.83402
562 1 6.96757 9.2002 9.66635
625 1 7.77824 9.21564 9.01541
925 1 8.68849 9.73009 8.75994
716 1 9.40469 9.9027 9.43647
938 1 9.60186 8.68616 9.41449
893 1 8.64669 9.086 9.6043
934 1 10.342 9.57689 8.81005
1037 1 10.2267 9.27887 9.97327
1003 1 12.5733 9.82326 8.65941
1272 1 11.6283 9.04637 9.06312
1590 1 13.5879 8.97547 9.15112
1515 1 14.4927 8.83952 8.92753
1351 1 14.7801 9.78734 9.48902
1352 1 15.548 9.28085 9.55049
1523 1 16.6721 9.22258 9.81395
1583 1 16.4246 8.85514 8.95622
1578 1 16.525 9.86309 8.66278
1546 1 18.4079 9.57629 9.68307
1674 1 18.3196 9.99064 8.69421
1907 1 18.5296 8.70465 8.80194
1673 1 17.5428 9.55596 9.03035
1602 1 19.5937 8.85742 9.4262
1601 1 19.1622 9.4882 8.84864
1827 1 20.3953 8.653 8.62688
2230 1 21.3096 9.28733 8.97676
1680 1 20.7312 9.78635 9.75776
1679 1 20.2557 9.67799 8.93135
2091 1 21.7906 9.69783 9.82479
1929 1 23.8545 9.60537 9.76514
2082 1 22.9965 8.83598 9.57113
2212 1 23.2872 9.75818 8.95112
2211 1 24.2458 9.48212 8.78116
2000 1 25.6255 9.43304 9.26883
1928 1 26.5958 9.26317 9.57407
2491 1 26.9328 9.09997 8.57987
2320 1 27.5005 9.96239 9.70001
244 1 27.7023 9.99137 8.70326
243 1 27.9045 9.10644 8.90389
2479 1 29.3994 9.08945 8.90108
2418 1 29.1345 8.92402 9.92692
247 1 29.766 9.7111 9.79544
ITEM: TIMESTEP
15000
ITEM: NUMBER OF ATOMS
2532
ITEM: BOX BOUNDS pp pp pp
0.0000000000000000e+00 3.0000000000000000e+01
0.0000000000000000e+00 1.0000000000000000e+01
0.0000000000000000e+00 1.0000000000000000e+01
ITEM: ATOMS id type x y z
4 1 0.920956 0.2429 0.581955
7 1 2.20157 1.08536 1.36107
8 1 1.96332 0.705689 0.490619
403 1 4.20049 1.27516 0.912194
640 1 3.17228 0.495239 0.894141
376 1 4.29265 0.12474 0.817608
461 1 5.32725 0.130897 0.796728
404 1 5.13263 1.26594 0.804713
375 1 4.75573 0.539834 0.0877421
944 1 6.53355 0.177301 0.546187
705 1 6.65056 1.17028 0.91475
706 1 7.41049 0.588236 1.15481
949 1 7.48803 1.38005 0.185131
943 1 7.36774 0.319626 0.0566959
720 1 8.37566 0.858413 0.495818
719 1 9.20901 0.380639 0.413144
1039 1 9.71977 1.21452 0.0113553
1040 1 10.6684 1.3078 0.152929
890 1 10.1557 0.805425 0.996683
1209 1 11.5877 0.223273 0.172211
974 1 12.1223 1.08437 0.464356
662 1 11.6714 0.531578 1.36851
973 1 12.0882 1.39865 1.36273
965 1 13.4331 0.341111 0.593619
1029 1 13.0945 1.25196 0.879213
1289 1 14.1108 0.969232 1.39705
1356 1 14.3765 0.550444 0.21903
1211 1 15.1606 0.0470112 1.07713
1282 1 15.8071 0.944705 0.591157
1543 1 17.1795 1.07749 0.298736
1298 1 17.6942 1.26793 1.25001
1617 1 18.2294 0.695245 0.652348
1544 1 17.3298 0.135003 0.517862
1843 1 19.2481 0.131842 0.146407
1613 1 19.2863 0.424957 1.14334
1614 1 19.3744 1.3405 1.10314
2065 1 20.2731 0.52403 0.70875
2066 1 21.1492 0.060446 0.685784
1675 1 21.0073 1.12348 0.241233
1916 1 22.3268 0.248764 0.704744
1612 1 21.5258 1.24052 1.23739
2009 1 23.2435 1.06201 0.404799
2236 1 23.954 0.549306 1.01166
2235 1 24.5784 1.31382 0.935537
1988 1 25.4645 0.867309 0.714828
1987 1 26.396 0.670564 0.980175
1936 1 26.8386 1.06345 0.13813
2496 1 27.6538 0.697139 0.649448
2495 1 28.2165 0.087288 1.22455
2246 1 29.4209 1.21432 0.5292
2245 1 28.7313 1.38801 1.17267
2265 1 29.1713 0.211125 0.558599
91 1 0.677452 2.08088 0.203827
12 1 2.13241 1.56499 0.0161746
14 1 1.51265 1.6919 1.06149
13 1 1.9455 2.55602 1.03936
477 1 2.52898 2.60166 0.228985
96 1 3.0963 2.51444 1.15772
330 1 4.28556 2.26727 1.14755
95 1 3.01623 1.6308 0.763675
78 1 4.09944 2.03582 0.18992
475 1 5.61278 2.28542 1.07241
466 1 5.09486 2.71118 0.265629
476 1 6.02962 1.92196 0.324387
651 1 6.75267 2.54081 0.796357
718 1 8.3922 2.69388 0.525547
731 1 8.00569 1.65143 1.06639
717 1 9.00554 2.16159 1.06225
733 1 9.68829 2.41101 0.0766313
714 1 8.80169 1.80531 0.0354551
800 1 10.7294 2.71237 0.566941
664 1 10.5827 1.76046 1.19598
969 1 12.5519 2.03461 0.63682
970 1 11.6128 2.089 0.699123
647 1 14.0331 1.9637 0.708412
1281 1 14.9661 1.43631 0.516221
1307 1 16.4236 1.92127 0.176055
1297 1 16.731 1.67253 1.26866
1308 1 15.7959 2.14199 0.877399
1461 1 16.7372 2.64578 0.872427
1387 1 18.5402 1.75157 0.582153
1388 1 17.7213 2.21315 0.784669
1384 1 19.1819 2.607 1.14467
1621 1 20.2336 1.81109 0.629645
1616 1 21.1963 2.48328 0.963709
1703 1 21.6035 1.93275 0.0676201
1704 1 22.2583 1.52837 0.656227
2010 1 23.4776 1.44279 1.22181
1678 1 24.0406 2.34429 0.781885
1934 1 22.9797 2.57725 0.679224
1677 1 24.6691 2.65207 1.37593
2007 1 25.6932 1.96405 0.773718
2023 1 24.8397 2.54431 0.120945
2253 1 26.6679 2.38629 0.324989
2254 1 27.0854 1.7419 0.915388
2248 1 28.0285 2.30889 0.677541
92 1 29.9238 2.65287 0.255721
16 1 29.734 2.04937 1.09815
2244 1 29.0769 2.14596 0.341641
2411 1 0.244093 4.11259 0.0813262
2395 1 1.23603 4.08695 0.110433
2397 1 0.855094 2.98649 0.782189
163 1 2.048 3.43629 0.467741
98 1 2.28779 3.4768 1.42156
415 1 3.13387 3.59927 0.363196
393 1 3.69835 3.37024 1.34097
394 1 4.00185 3.02032 0.445131
329 1 4.71668 3.01666 1.40479
544 1 4.97859 3.66575 0.456172
459 1 5.88878 4.2631 0.553609
417 1 6.01354 3.69308 1.38425
467 1 6.23032 3.32013 0.474768
722 1 7.76249 3.8237 1.35271
797 1 8.40077 4.17101 0.53141
734 1 9.70203 3.01372 0.913534
793 1 8.82163 3.42552 1.05111
859 1 9.54902 4.07696 0.166984
799 1 10.8381 3.65605 0.723116
1057 1 12.2987 3.98508 0.55662
740 1 12.075 3.2064 1.34699
1043 1 13.1929 2.9815 0.797226
1053 1 13.9468 3.59418 1.29111
1062 1 13.0552 4.02084 1.36053
1048 1 13.5244 4.17605 0.423222
1052 1 14.4839 2.91985 0.587162
1065 1 15.1611 4.0065 1.14723
1450 1 15.5747 3.11037 1.01501
1462 1 16.4196 3.24046 0.167882
1776 1 17.0745 3.90972 0.497551
1396 1 18.1561 3.17849 1.04504
1293 1 19.3956 2.93526 0.184696
1708 1 19.5245 3.8151 0.865075
1707 1 20.2984 3.22501 0.878495
1933 1 22.2393 3.04081 0.451279
1762 1 22.8013 4.05269 0.549382
1780 1 21.7067 3.54248 1.27461
2006 1 24.1359 3.35664 0.729943
2024 1 25.5933 2.94088 0.625721
2011 1 25.0174 4.01356 0.550822
2410 1 26.3431 4.07694 0.217528
2346 1 26.5591 3.28713 0.935405
2018 1 26.0311 4.2525 1.20956
2313 1 27.4623 3.20775 0.538457
2409 1 27.261 4.26686 0.480948
2314 1 28.1039 3.58146 0.0623796
2345 1 27.2344 3.69913 1.42654
2318 1 29.2125 4.15804 0.122081
2317 1 29.0215 3.59102 0.834876
2398 1 29.9609 3.08196 1.12394
2331 1 29.9618 4.11784 1.24296
2412 1 0.459472 5.02119 0.213377
88 1 1.168 5.00484 1.06344
164 1 2.38923 4.32138 0.70007
84 1 2.05741 5.4482 0.375957
156 1 3.18929 5.44886 0.549161
155 1 3.41967 4.53338 0.829917
481 1 4.27829 5.46443 0.494057
401 1 5.19831 4.76291 1.38316
628 1 5.46433 5.34849 0.422871
486 1 4.32882 4.36343 0.0722679
721 1 7.05217 4.36766 1.05294
549 1 6.52656 5.31456 1.32039
550 1 6.79408 5.44495 0.429602
460 1 6.69655 4.37391 0.122987
473 1 7.85376 5.06172 0.614133
867 1 8.81944 5.63849 1.21908
796 1 8.83958 5.00849 0.181382
802 1 11.2725 5.64564 0.153316
1186 1 10.6486 5.45414 0.996234
860 1 10.0821 4.80955 0.435317
1200 1 12.77 4.8561 0.349646
1221 1 11.7622 5.11488 0.877931
1114 1 13.7508 5.19446 1.0491
992 1 14.8625 5.05871 0.84774
1438 1 14.5751 4.36308 0.175927
1372 1 16.7503 4.93379 0.202173
991 1 15.8391 4.84353 0.835822
1452 1 16.9453 5.47905 1.1489
1451 1 17.0021 4.50104 1.24466
1519 1 17.5252 5.53356 0.212147
1775 1 17.8977 4.34025 0.840225
1380 1 18.9808 5.45761 0.407008
1698 1 19.8677 4.94739 1.10478
1697 1 20.1973 4.58379 0.330042
1691 1 21.1922 4.3663 1.01585
1692 1 20.906 5.25461 0.961244
2013 1 22.2359 4.60997 1.3061
1767 1 22.4351 5.65108 1.05522
2005 1 23.9314 4.31817 0.622741
2106 1 23.1736 4.99488 1.09733
2104 1 24.1639 4.9951 1.32555
2017 1 25.2275 4.74929 1.32493
2002 1 24.9453 5.19778 0.390779
2422 1 26.0243 5.28155 0.583811
2328 1 28.2547 4.37581 1.17544
2460 1 27.3432 4.76796 1.30669
2392 1 27.6387 5.43861 0.011453
2391 1 28.45 5.18617 0.395345
2332 1 29.6522 4.98197 0.880198
87 1 0.734329 5.82368 1.29223
2403 1 0.294975 6.25072 0.377124
152 1 0.727491 7.1043 0.463328
171 1 1.45994 6.31658 0.580538
175 1 2.46323 5.9852 1.14627
172 1 2.10658 6.90453 0.361562
176 1 3.11285 6.58293 0.666847
482 1 4.3155 6.41751 0.423368
487 1 5.39241 6.8319 0.647182
488 1 5.92981 6.14124 0.956042
563 1 6.75259 6.92434 0.464517
810 1 7.62667 6.48302 0.684725
868 1 8.62172 6.25429 0.482759
863 1 9.57652 5.82942 0.420707
806 1 9.23407 6.89259 1.25132
553 1 9.39222 6.92866 0.272496
864 1 10.2844 6.41686 0.698458
1123 1 10.9808 6.94884 1.16606
955 1 11.2903 6.81208 0.0582548
801 1 11.4613 6.15238 0.997838
956 1 12.2423 6.51864 0.272697
1143 1 13.0816 6.51451 1.1971
1529 1 13.9897 6.93647 0.589073
1113 1 14.1884 6.00367 1.25306
1119 1 14.6376 5.8831 0.0121211
1443 1 15.5128 5.93959 0.794556
1218 1 15.182 6.74932 0.380686
1131 1 14.9245 7.02713 1.33979
1444 1 16.3241 6.46541 0.813372
1371 1 16.5923 5.86896 0.00124241
1442 1 17.3896 6.58232 1.17378
1441 1 18.2333 6.18842 0.775018
1829 1 17.4826 6.76026 0.143723
1777 1 19.7256 6.00229 1.09235
1837 1 19.8659 7.07524 0.451058
1513 1 19.0895 6.46651 0.0283555
1840 1 21.2978 6.03299 1.39866
1839 1 21.2274 6.99659 1.14329
1764 1 20.5162 5.98595 0.39128
1841 1 21.6328 6.61761 0.280728
2105 1 23.4857 5.75111 0.45732
1849 1 23.0952 6.76323 0.870987
2096 1 24.2406 6.13289 1.24361
2181 1 25.0991 6.56426 0.720463
2415 1 27.0737 6.21827 0.676198
2185 1 25.9499 7.11742 0.195422
2186 1 26.1096 6.6477 1.00286
2401 1 28.0156 5.77239 1.30759
2423 1 27.6914 7.02373 0.759855
2493 1 28.1381 6.33246 0.0480876
177 1 28.746 6.61519 0.795408
2473 1 29.4165 5.96864 0.922978
2474 1 29.0977 6.04195 0.0190217
178 1 29.5733 7.01169 0.530682
151 1 1.23231 7.42227 1.2124
2504 1 0.708497 8.15765 0.501593
242 1 1.40601 8.4348 1.16918
246 1 2.21031 7.87342 0.822078
634 1 3.12287 8.44044 0.40536
633 1 3.25422 7.56071 0.898494
257 1 4.44949 7.32871 0.803938
258 1 4.28661 8.05211 1.42412
638 1 5.22064 8.25499 0.513505
398 1 6.03733 7.68084 0.0778177
381 1 6.92645 8.30025 0.176676
564 1 6.61207 7.7201 0.914113
958 1 8.37371 7.2508 0.78813
957 1 7.63955 7.54835 0.148706
657 1 7.81256 8.14066 0.929425
809 1 7.44798 7.24486 1.26196
902 1 9.38805 7.83668 1.09944
894 1 8.90141 8.20901 0.0631655
952 1 10.5179 7.99536 1.23091
1275 1 10.2358 7.80453 0.0537021
1280 1 11.5628 7.71177 0.639793
1279 1 11.5348 8.55893 1.07525
1354 1 13.0256 7.87271 0.737393
1353 1 13.9241 8.23598 0.846515
1217 1 14.8452 7.63317 0.442797
1232 1 14.8636 8.28901 1.33527
1521 1 15.8638 7.5493 1.09577
1598 1 16.7064 7.32776 0.348993
1525 1 16.5638 8.30301 1.06701
1585 1 15.8058 8.04536 0.0344021
1447 1 18.3925 7.37538 0.280266
1448 1 18.1286 7.28777 1.23779
1599 1 18.4719 8.18904 1.34457
1528 1 17.8709 8.25039 0.429111
1600 1 19.1828 8.03571 0.740358
1913 1 20.4451 7.81617 1.14471
1917 1 20.1017 8.20269 0.224061
1838 1 20.7879 7.21415 0.127751
1766 1 21.5587 8.23849 1.09642
1765 1 21.9981 8.43971 0.238578
1850 1 22.9289 7.5513 1.33369
2240 1 23.686 7.52515 0.127256
2159 1 23.6339 8.46204 0.645688
2160 1 24.3421 7.85739 0.870421
2163 1 25.1365 8.06327 0.164002
2315 1 25.8121 7.7836 1.23027
2489 1 26.4783 8.0104 0.590036
2424 1 26.9055 7.28067 1.25758
272 1 27.5958 8.01165 1.03278
267 1 28.394 8.00353 0.214618
319 1 27.2827 8.16594 0.00125054
268 1 28.9945 7.81163 1.03401
2503 1 29.9907 8.10141 1.07359
2417 1 29.55 8.11902 0.159967
240 1 0.0295444 9.88971 1.18265
241 1 0.616462 8.99122 1.05901
248 1 0.59796 9.32714 0.0350132
9 1 2.67531 9.62894 0.502343
245 1 2.29249 8.76394 1.08687
322 1 1.57374 9.50562 0.816347
321 1 1.50656 8.79799 0.215471
10 1 3.23611 9.27855 1.1725
462 1 5.6352 9.23487 0.999502
391 1 4.51619 9.09359 0.360495
573 1 4.35816 9.34205 1.36362
382 1 6.6099 9.09707 0.630609
891 1 7.52048 9.21592 1.06777
658 1 8.38166 8.7878 1.41346
650 1 8.5148 9.63279 0.721287
892 1 7.91869 8.89455 0.220921
649 1 9.22012 9.05264 0.435687
883 1 9.83617 9.77632 1.08981
1210 1 10.9838 9.74091 0.724635
951 1 10.4061 8.88465 0.985688
1203 1 12.8538 8.8191 0.881911
1259 1 12.2477 9.73712 1.0435
1260 1 12.2289 9.42505 0.154397
1271 1 11.435 8.6245 0.00744192
1204 1 13.6089 9.24403 1.33534
1589 1 13.7218 9.25543 0.056152
1347 1 15.3951 9.11101 0.659643
1348 1 14.6712 8.67398 0.188742
1212 1 14.489 9.48554 0.767329
1524 1 16.2902 9.94762 0.353018
1291 1 16.9809 9.61236 1.39138
1527 1 17.628 9.12672 0.184609
1844 1 19.8364 9.46251 0.415508
1545 1 18.7899 9.03922 0.378214
1847 1 19.063 9.44691 1.32229
1918 1 20.8534 8.85554 0.303456
1914 1 20.1014 8.71442 1.07694
2234 1 21.8457 9.29857 1.14887
2233 1 22.6515 9.29973 0.484588
1857 1 22.8493 9.83743 1.3818
1930 1 23.7293 9.44366 0.734098
1942 1 24.9717 9.78643 0.0428837
2164 1 24.5442 8.8288 0.279486
2316 1 25.6192 8.72709 1.06754
2319 1 26.9049 9.95814 0.418349
1927 1 26.7424 9.01372 0.575812
1941 1 25.7296 9.71866 0.666153
271 1 27.9561 8.92926 0.788357
2266 1 28.3567 9.91983 0.162935
239 1 29.7057 9.11098 0.833549
256 1 0.677253 0.461589 1.71929
119 1 0.692168 1.33647 2.10438
120 1 1.65467 1.08911 2.29835
19 1 1.63719 0.152515 1.70742
574 1 3.86666 0.120996 1.75447
266 1 3.00238 0.517262 2.35276
399 1 5.07251 0.022669 1.83753
412 1 5.63534 1.03903 2.45162
346 1 4.78366 1.05167 1.83743
400 1 6.00268 0.327812 1.55452
337 1 6.83307 0.927904 2.13348
578 1 6.29756 0.240786 2.61889
646 1 8.37814 0.75802 1.56093
568 1 7.72893 0.417418 2.39268
900 1 8.89918 0.372347 2.55972
741 1 9.74651 0.510295 2.12365
645 1 9.09497 1.37398 1.74889
661 1 11.2296 1.22146 1.84352
889 1 10.6861 0.264101 1.55697
655 1 10.625 0.595053 2.59204
987 1 11.5627 0.356806 2.31974
976 1 12.5403 0.763322 2.00593
967 1 13.9598 0.247218 2.31956
1288 1 14.9345 0.5788 1.92107
1287 1 15.7351 1.1157 1.69485
1555 1 16.5995 0.979613 2.32306
1565 1 16.9095 0.0372189 2.42815
1292 1 16.2858 0.184809 1.56467
1566 1 17.5123 0.33297 1.77033
1607 1 19.5012 0.925596 2.16397
1608 1 18.5772 1.19676 1.90442
1626 1 20.119 0.201607 1.65022
1611 1 21.1537 0.922463 2.03528
1622 1 20.3866 1.33507 1.45476
1882 1 20.3518 0.378226 2.76164
1858 1 22.2531 0.425215 1.83858
2172 1 23.2403 0.672362 2.01603
2171 1 23.9396 0.0579653 2.20041
2184 1 23.0404 0.0351176 2.84339
2161 1 24.5508 0.733382 1.80603
2019 1 25.6206 0.227609 1.82656
2020 1 25.3172 0.642289 2.60776
2261 1 26.7391 1.30296 1.82568
2262 1 25.8376 1.19987 1.64496
2271 1 26.9818 0.0946763 2.40039
2272 1 26.1069 0.00578153 2.82375
2333 1 26.4495 0.912318 2.76389
2349 1 27.7528 1.34077 1.5074
2350 1 27.8727 0.80727 2.32609
255 1 29.9035 0.960874 1.52553
288 1 29.1274 0.844677 2.32311
28 1 0.717588 2.27759 1.59888
2260 1 2.74564 1.93367 1.98938
37 1 1.76176 2.1494 2.29709
2259 1 3.58354 1.5885 1.77422
413 1 3.68093 2.52019 2.06969
345 1 5.00283 1.9164 1.80809
411 1 6.01027 1.45514 1.66718
333 1 5.82902 2.57737 2.00075
334 1 6.44261 2.53202 2.68659
652 1 6.93062 2.03835 1.56746
732 1 8.01064 2.50908 1.45081
816 1 7.66289 1.65409 2.32157
815 1 7.5589 2.59965 2.39591
659 1 8.58125 2.70551 2.38286
730 1 9.51525 2.42577 2.63524
779 1 11.3221 2.419 1.68097
729 1 10.1209 2.76779 1.94872
780 1 10.9219 2.05719 2.49991
663 1 10.0718 1.66018 2.01603
739 1 12.4728 2.34683 1.62054
908 1 12.1759 1.74911 2.56733
977 1 11.8135 2.72477 2.60306
648 1 13.7111 2.29062 1.52735
989 1 13.2781 1.77129 2.38104
990 1 14.1743 1.68065 2.75643
1067 1 12.8709 2.66054 2.78263
1050 1 13.8427 2.68953 2.44284
1290 1 14.5906 1.7843 1.5937
972 1 15.1944 1.62897 2.49826
971 1 15.3918 2.5082 2.57939
1299 1 16.2431 2.01048 2.34205
1455 1 16.9414 2.82396 1.92889
1300 1 16.9211 2.4542 2.8246
1556 1 17.3008 1.72161 2.07675
1395 1 18.0818 2.53174 1.77518
1306 1 19.0214 2.03697 2.43005
1632 1 20.0757 1.82315 2.42539
1706 1 21.0513 1.81753 2.84037
1615 1 21.0578 2.18941 1.85152
1303 1 20.2141 2.5058 1.67868
1374 1 22.0381 1.51264 2.46035
1937 1 21.911 2.54602 2.34397
1938 1 22.4181 2.29866 1.5826
1373 1 22.9686 1.63101 2.16871
1629 1 23.4684 2.68971 1.59086
2162 1 24.7661 1.59725 2.08677
1932 1 25.2709 2.48321 2.22109
2015 1 26.2268 2.28299 1.60217
2353 1 26.2023 2.69551 2.62842
2339 1 25.7223 1.73987 2.70988
2016 1 27.1617 2.5193 1.65541
2247 1 28.1531 2.25534 1.67335
2288 1 27.3352 1.83324 2.49099
15 1 29.3841 1.82485 1.96144
2342 1 28.7734 2.69768 2.38978
2341 1 29.0334 2.68766 1.43578
27 1 1.26458 3.02054 1.77535
2432 1 0.346303 4.12203 2.47035
105 1 2.84941 3.24395 2.57503
106 1 2.03378 3.7604 2.64857
97 1 2.97645 4.08098 1.79364
498 1 4.171 3.52458 2.35111
484 1 5.20619 2.86145 2.81131
402 1 5.06841 3.92903 1.806
332 1 5.93869 3.98861 2.85146
418 1 6.69889 3.06652 1.68748
746 1 7.9619 3.45496 2.55044
794 1 9.28042 4.225 1.48268
817 1 8.64201 4.22649 2.80364
660 1 9.29424 3.32744 2.09257
818 1 9.58916 4.25091 2.79504
723 1 10.265 3.76289 2.01794
744 1 10.8908 3.20365 2.57357
725 1 11.3248 3.9834 2.15775
1073 1 12.752 4.2517 2.31106
1049 1 13.997 3.62885 2.53958
1061 1 13.1484 3.21169 1.89971
1054 1 14.6928 3.15454 1.57124
1066 1 15.3353 3.76297 2.06027
1449 1 16.2564 3.55336 1.5012
1375 1 16.2844 3.35666 2.49327
1456 1 17.3345 3.58702 1.54803
1479 1 17.1495 4.16996 2.38489
1399 1 17.9895 3.3812 2.47115
1383 1 19.435 3.16106 1.88119
1459 1 19.4733 4.20347 1.81126
1386 1 19.3994 3.69558 2.83065
1460 1 20.3308 3.97027 1.52364
1304 1 20.5603 3.16225 2.3327
1874 1 22.8043 2.9543 2.74289
1779 1 21.4379 4.06005 2.03875
2034 1 22.8496 3.66407 1.87192
2033 1 22.27 3.84456 2.63007
2098 1 23.8046 3.89063 1.62581
2097 1 23.5822 3.99502 2.54389
1630 1 24.0717 2.94223 2.34681
2021 1 25.5479 3.37393 1.64312
2099 1 24.6989 4.07895 2.01378
2022 1 26.0024 3.94746 2.27196
2336 1 26.9573 3.7785 2.45862
2326 1 28.2827 3.47483 1.59406
2051 1 27.6727 2.96327 2.36274
2325 1 28.2211 3.77369 2.47859
2430 1 29.697 3.25702 2.10432
2429 1 29.1744 4.09648 2.10334
100 1 1.01454 4.86332 2.0894
99 1 0.113052 5.0553 1.86463
165 1 2.2466 4.78766 2.4951
166 1 2.3899 5.09652 1.56432
479 1 3.90828 4.71476 2.75052
507 1 4.12703 4.84461 1.75161
110 1 3.11004 5.41978 2.46289
508 1 4.67971 5.4351 2.25399
422 1 4.83027 4.40318 2.65644
635 1 5.72844 5.38206 2.06831
430 1 6.77553 5.19087 2.3445
636 1 6.02243 4.50836 1.94152
727 1 7.55284 5.34428 1.49929
429 1 7.42656 4.43208 2.22026
728 1 8.37703 4.81638 1.52534
807 1 9.85269 5.06984 1.83127
1136 1 9.13565 5.32158 2.65353
724 1 10.5835 4.45956 1.44588
1185 1 11.1888 5.52715 1.79282
808 1 10.5064 4.78393 2.46627
726 1 11.6572 4.69085 2.59616
1222 1 12.1575 5.13042 1.74404
1197 1 14.025 4.7874 2.65834
1198 1 14.246 4.63925 1.75521
1138 1 12.9105 5.64396 2.71171
1465 1 15.0679 5.27637 1.97055
1471 1 15.9532 5.61809 1.59313
1472 1 16.6357 5.29849 2.20852
1457 1 15.7871 4.85088 2.57642
1533 1 17.866 5.27138 1.52911
1534 1 17.5691 5.09564 2.32576
1470 1 18.5001 5.69335 2.63615
1469 1 19.1203 5.41572 1.9758
1728 1 18.6048 4.50501 2.16625
1711 1 21.1975 4.96777 1.85798
1393 1 20.342 4.72435 2.37239
2014 1 22.8032 4.65904 2.05994
1712 1 21.9892 5.39169 2.16842
2103 1 23.8653 4.99458 2.27503
2110 1 24.9876 5.07327 2.33363
2459 1 27.0628 5.25144 2.03398
2090 1 26.1105 5.709 1.55764
2109 1 25.9459 5.02483 2.48528
2327 1 28.1572 4.78877 2.00624
2402 1 28.8418 5.66518 1.87847
186 1 29.4131 4.84944 2.75852
170 1 0.446583 6.84106 1.47358
2425 1 1.28372 5.88089 2.19853
169 1 0.326898 6.26262 2.23364
2426 1 1.64397 6.53594 1.58181
168 1 2.60714 7.1259 1.6313
263 1 2.1878 6.31648 2.63398
182 1 3.71578 6.8594 1.48345
109 1 2.99161 6.24867 1.96109
181 1 3.98088 5.96206 1.42941
492 1 4.17378 6.50762 2.38708
493 1 5.24641 6.25839 1.73349
494 1 5.17461 6.33738 2.70673
491 1 4.73891 7.12248 1.86754
495 1 6.19721 6.97515 2.63476
496 1 6.43717 6.05525 2.59827
813 1 6.89829 6.3666 1.44735
874 1 8.39054 5.79926 2.14503
814 1 7.48333 6.27319 2.20146
873 1 8.23282 6.68705 1.70406
805 1 9.24085 6.24018 1.97349
862 1 10.3237 6.39933 1.81759
1278 1 11.3185 6.39729 2.14444
861 1 10.2617 6.85383 2.69897
1128 1 12.4379 6.67 2.09479
823 1 11.908 5.91785 2.80719
1144 1 13.2868 5.71637 1.76899
1127 1 13.3941 6.63581 2.33062
1466 1 15.1652 6.2372 1.98734
1215 1 14.391 6.96314 2.62316
1147 1 14.3143 5.82038 2.5954
1141 1 16.0543 6.634 2.12793
1482 1 17.1252 6.18944 2.39312
1772 1 17.4777 7.12908 2.12794
1771 1 18.0694 6.40388 1.8816
1484 1 19.0772 6.54137 1.83565
1770 1 19.7224 6.1308 2.54199
1483 1 18.9217 6.75472 2.76041
1769 1 20.5284 6.65829 2.58744
1778 1 20.3774 5.72443 1.76053
2032 1 22.7151 6.52741 2.44007
1784 1 22.1928 6.67988 1.49354
1783 1 21.6075 6.6957 2.27517
1768 1 23.1426 5.78944 1.74697
2166 1 23.5055 7.11531 2.57695
2165 1 23.9255 7.12452 1.70688
2089 1 25.4939 5.99094 2.26536
2095 1 24.3413 6.14958 2.27711
2420 1 26.2755 6.79771 2.01422
2419 1 27.1251 6.32647 1.82359
188 1 28.3696 6.79513 2.0898
2500 1 27.5612 6.85597 2.78665
2357 1 27.7765 5.84888 2.47712
187 1 29.2245 6.9144 1.66164
208 1 29.3967 5.94375 2.77057
251 1 1.24076 7.43993 2.3262
253 1 0.378139 7.91904 2.78569
259 1 0.570161 8.38162 1.85186
252 1 1.95289 7.86296 1.83792
264 1 2.36488 7.2151 2.64764
167 1 2.95115 7.90955 2.04849
576 1 3.92597 7.63919 2.51216
637 1 5.28549 8.37906 1.55244
489 1 5.69579 7.43778 1.64513
570 1 4.95615 7.66556 2.7745
579 1 6.51172 8.48369 1.48746
580 1 6.91231 7.76988 1.96818
490 1 5.85718 8.02979 2.40018
555 1 8.27314 7.77289 1.7933
820 1 7.62915 7.41368 2.63052
501 1 8.1862 8.20312 2.84542
556 1 8.83201 7.24844 2.44809
880 1 9.73747 7.42849 2.08314
879 1 10.4288 7.9394 2.46058
1124 1 11.2164 7.50741 1.84673
887 1 11.0765 8.50765 2.05441
1202 1 12.185 7.80566 1.67035
1270 1 11.6933 8.00918 2.73772
1151 1 12.7982 8.49689 2.8424
1201 1 13.1228 7.6529 1.85002
1132 1 14.0873 7.41846 1.6066
1126 1 13.9283 8.52296 1.96761
1231 1 14.9842 8.11867 2.28485
1522 1 16.7073 7.25532 1.45197
1360 1 15.9577 7.77347 2.10476
1453 1 16.923 7.91492 2.68
1526 1 17.3924 7.94568 1.49936
1551 1 18.0066 8.39738 2.63522
1532 1 19.8359 7.51811 2.07604
1552 1 18.6044 7.62826 2.33352
1531 1 20.1171 8.39118 2.36172
1854 1 20.9117 7.50701 2.05317
2173 1 21.9888 7.97659 2.10922
2174 1 22.8525 8.12144 2.37399
2170 1 24.1051 8.06693 1.95522
2101 1 25.0497 7.21269 2.81966
2501 1 25.1491 7.2044 1.79242
2502 1 25.0839 8.18134 1.93722
2258 1 26.8993 8.33211 1.88717
2257 1 26.0827 8.00574 2.26868
2510 1 27.7125 7.66906 2.10595
2434 1 27.1453 8.07831 2.84633
254 1 29.9074 7.53968 2.04297
2509 1 28.672 7.86672 2.15584
2356 1 29.0573 7.159 2.79276
22 1 0.889125 9.72847 2.77431
20 1 1.21892 9.37155 1.88158
23 1 2.19759 8.84178 2.02883
265 1 2.59591 9.67443 2.14285
17 1 3.47607 8.83561 2.1617
18 1 3.86009 9.55748 2.61581
572 1 4.61214 8.78957 2.31441
336 1 6.00056 9.36718 2.03357
335 1 6.89853 9.74227 1.8886
326 1 6.74398 8.59875 2.51583
325 1 7.58239 8.68803 2.04683
567 1 8.03049 9.59367 1.96264
884 1 8.98173 9.92013 1.60896
901 1 9.51867 8.70979 1.43334
896 1 9.02418 9.34042 2.54017
888 1 11.308 9.44369 1.73737
885 1 10.2244 9.36276 2.21421
1540 1 11.9799 9.42957 2.46984
1539 1 12.3335 8.86648 1.75207
975 1 12.9954 9.94829 1.86467
1125 1 13.5584 9.2823 2.38484
1318 1 15.0582 9.99504 2.70882
1538 1 14.6154 9.3782 1.89631
1537 1 14.4701 8.97607 2.76528
1359 1 15.7829 8.62181 1.67413
1865 1 17.0765 8.92393 2.29179
1569 1 15.9146 9.40228 2.35867
1866 1 17.8563 9.05658 1.732
1870 1 18.4344 9.85621 2.31479
1869 1 19.4123 9.70788 2.41756
1848 1 19.0217 8.82361 2.006
2179 1 21.1588 8.73298 1.86504
1625 1 20.2011 9.27395 1.91609
1919 1 20.6923 9.23347 2.83298
1920 1 21.2285 9.78858 2.29331
2180 1 21.5184 8.75338 2.73634
2167 1 22.7612 8.66472 1.46355
2168 1 22.2828 9.22441 2.09101
1862 1 22.0909 9.94726 2.83793
2188 1 23.6291 9.16804 1.72444
2178 1 24.0204 8.90311 2.74447
2187 1 24.5596 9.1959 1.57283
1925 1 25.0101 9.44621 2.55262
2263 1 26.5295 9.68558 1.47876
2264 1 25.827 9.25174 2.01905
2506 1 27.0387 9.0279 2.56608
2507 1 27.958 8.71414 2.06484
2508 1 27.465 9.45102 1.65312
289 1 28.2338 9.84596 2.22876
21 1 29.9227 9.85027 2.69796
287 1 29.2403 9.98164 1.86735
260 1 29.97 9.09747 1.91434
2251 1 29.0019 9.02067 2.35863
2252 1 28.9021 8.8266 1.46461
303 1 0.982075 0.267716 3.89476
121 1 1.39836 1.31747 3.90132
304 1 0.637936 0.827289 3.14827
31 1 2.17444 0.253705 3.03805
32 1 2.37037 1.1942 3.05785
342 1 2.53095 0.494387 4.1227
93 1 4.22049 1.19906 3.72889
341 1 3.18369 0.576819 3.42698
29 1 4.56607 0.471837 2.9748
354 1 5.45647 0.951741 3.55825
262 1 4.58357 0.00552742 3.98198
338 1 6.72042 1.34562 3.01311
370 1 6.44763 0.553412 3.50865
369 1 7.08764 1.016 4.06129
339 1 8.57065 1.3073 3.12931
899 1 8.24794 0.0582056 3.13305
616 1 7.88144 0.158308 4.10208
340 1 8.36708 1.28609 4.10378
710 1 9.29625 0.680875 3.7547
742 1 9.81094 0.0220234 2.9461
709 1 9.69575 1.14982 2.9777
656 1 10.4432 0.663857 3.50723
988 1 12.2119 0.459851 2.9655
907 1 11.4349 1.28002 2.93305
904 1 11.4872 0.431324 3.62771
994 1 12.4449 1.33266 3.55019
1205 1 12.5138 0.336653 4.15758
993 1 11.5778 1.34975 4.10603
1536 1 13.3716 0.966904 4.07251
1535 1 13.4347 0.880112 3.14662
968 1 14.4944 0.705743 2.98996
1249 1 15.3573 0.979217 3.5459
1317 1 15.9798 0.261372 2.90557
1000 1 15.8911 0.117684 3.999
1007 1 16.6247 0.967756 3.75746
1313 1 17.6279 0.588973 3.06574
1314 1 18.5465 0.763226 2.87396
1391 1 17.9145 1.09222 4.03455
1562 1 17.4784 0.0406788 4.13092
1310 1 19.902 1.1414 3.45453
1309 1 19.307 0.371735 3.4915
1640 1 19.0915 1.10964 4.21261
1633 1 20.5636 0.238201 3.78036
1718 1 20.8691 1.23693 3.84488
1881 1 21.227 0.68935 3.04392
1877 1 22.6087 0.887485 3.24878
1878 1 21.9145 0.878976 3.94986
2183 1 23.7154 0.508491 3.3245
1956 1 23.859 0.870709 4.27252
2176 1 24.4966 1.25196 3.14684
1960 1 25.4296 0.348306 3.67243
1959 1 24.7329 0.082302 4.20202
2334 1 26.0956 1.07347 3.6724
2273 1 26.6513 0.178336 3.99215
2498 1 27.5677 0.54066 3.32264
2497 1 28.5421 0.78535 3.36822
2267 1 29.667 0.644382 3.41086
2344 1 0.812608 1.97285 3.09244
2343 1 0.802963 2.44141 3.92188
41 1 0.0770663 1.4644 3.91592
445 1 2.46745 1.56167 4.14906
38 1 1.81348 2.33776 3.2481
446 1 2.56844 2.51535 4.25996
102 1 2.85853 2.26163 3.28512
101 1 3.46069 1.61242 3.0875
435 1 3.80589 2.14504 4.05156
414 1 3.91445 2.74345 3.0102
94 1 4.58724 1.51713 2.86877
353 1 5.68254 1.83871 3.2925
409 1 4.79207 2.27673 3.63804
350 1 5.66798 2.57176 4.24806
427 1 6.69732 2.11394 3.99063
344 1 7.64589 1.75163 3.44892
666 1 8.59032 2.28255 3.83686
644 1 9.42084 2.82438 3.91779
351 1 9.70089 1.65748 3.9103
743 1 10.3348 2.80707 3.21036
352 1 10.5859 1.84289 3.56893
978 1 11.5701 2.37816 3.502
1002 1 14.054 2.02039 4.08181
1001 1 13.2497 2.04449 3.56273
985 1 15.0137 2.09739 3.43995
1250 1 14.8678 1.46682 4.27677
986 1 15.9773 2.01975 3.35648
1407 1 17.0613 2.64102 3.93708
1008 1 16.0184 1.58304 4.19183
997 1 15.8681 2.79985 4.27377
979 1 17.3022 1.5653 3.17985
1408 1 17.1717 1.79258 4.25905
980 1 18.0747 2.11452 2.93001
1389 1 18.1682 2.35453 4.01468
1305 1 19.0202 1.97337 3.40695
1631 1 20.0646 2.26931 3.33513
1709 1 21.1243 2.71904 3.77061
1671 1 22.8008 2.22849 3.78829
1705 1 21.745 1.90777 3.5731
1672 1 23.3167 1.70623 3.13759
1620 1 23.7867 2.29969 3.9778
2175 1 24.3046 2.21515 3.03967
1619 1 24.7194 1.98599 3.92094
2340 1 25.5282 2.38062 3.44628
2361 1 26.8551 1.71977 3.65588
2287 1 27.8951 1.68817 3.26581
2052 1 27.2625 2.5408 3.14952
2278 1 28.8877 1.74041 4.00143
2268 1 29.8633 1.56689 2.95058
2277 1 28.8877 1.95101 3.0522
2519 1 29.7481 2.55216 2.90742
2520 1 29.6645 2.50416 3.89699
195 1 0.609521 3.08354 2.99592
2359 1 0.144249 3.6598 4.11311
196 1 0.936549 3.91698 3.42933
25 1 1.58085 3.13187 4.22325
26 1 2.04726 3.71506 3.59038
480 1 3.0263 4.23907 2.94106
497 1 4.03378 3.70744 3.29499
436 1 3.90134 3.11247 4.21511
434 1 3.3724 4.09416 4.06708
433 1 3.00177 3.32219 3.70408
410 1 4.90733 3.18389 3.85235
408 1 5.2887 4.21729 3.67209
407 1 4.48605 4.16241 4.23561
483 1 5.89859 3.10573 3.41717
425 1 6.8301 3.51588 2.92365
347 1 6.57342 4.16656 4.21337
426 1 6.82009 3.15488 3.81891
424 1 7.53087 4.15751 3.22809
745 1 7.9283 3.08949 3.4601
755 1 8.38953 4.15198 3.8173
756 1 7.72132 3.71127 4.26807
643 1 8.91007 3.31918 3.20176
747 1 9.93826 3.80888 3.70418
736 1 11.3891 3.49682 3.63202
1068 1 12.5829 2.91578 3.61036
1074 1 12.1337 3.83667 2.94627
1122 1 13.8863 4.16188 3.60326
1121 1 13.1718 3.76393 3.14961
984 1 13.7674 2.9789 3.74171
1076 1 13.0994 3.78951 4.2052
1077 1 15.2833 3.37636 3.02839
1078 1 14.7141 3.08836 3.75623
1382 1 15.4748 3.85128 4.00584
1376 1 16.2539 3.0622 3.38669
1085 1 16.4451 4.11602 3.72158
1086 1 17.1906 3.61733 3.38748
1419 1 18.2702 4.15423 4.25318
1400 1 18.6253 2.9678 2.94828
1390 1 18.8753 3.10214 4.05272
1385 1 19.5026 4.10481 3.7385
1312 1 20.0735 3.21411 3.85282
1710 1 21.2914 3.32445 3.05595
1798 1 21.0881 4.11737 3.78375
1394 1 20.3649 4.03557 3.05435
1873 1 22.1202 2.89108 3.40875
1797 1 22.0374 3.88569 3.77451
1943 1 23.7608 3.13913 3.32392
1944 1 23.0422 3.78684 3.39956
1628 1 24.251 3.72456 3.98736
1931 1 25.0303 3.1092 2.93025
2100 1 24.7165 4.1756 3.02079
2039 1 25.3647 3.86091 4.12023
2354 1 26.1078 3.20516 3.47184
2124 1 26.562 3.81513 4.23154
2364 1 27.5523 3.41281 3.77695
2363 1 28.2691 3.11874 3.19162
2431 1 29.5577 3.83713 3.02453
199 1 28.703 3.34422 4.0109
185 1 0.288111 5.2921 2.88239
2370 1 0.140908 4.63417 3.81497
103 1 1.4138 4.7646 3.09331
104 1 1.48983 5.70386 3.29721
180 1 2.84313 5.18498 3.39642
111 1 2.31242 4.49933 4.16827
112 1 1.79154 5.28571 4.21917
179 1 3.5824 4.98421 4.00556
421 1 5.37371 5.04855 2.98398
420 1 4.59853 5.63948 3.32448
331 1 6.36658 4.75173 3.23413
442 1 5.9071 5.02074 4.23203
825 1 7.71301 5.35906 2.87517
423 1 7.53266 4.8734 3.90383
826 1 8.27892 5.53156 3.69033
1157 1 9.99894 5.1567 3.30995
1158 1 9.22797 4.65547 3.62565
735 1 10.9396 4.36615 3.43922
758 1 10.699 5.49567 3.99134
1055 1 12.1508 4.37606 3.84826
912 1 12.3642 5.48319 4.10411
911 1 11.6893 5.23774 3.55976
1056 1 12.8755 4.70544 3.28542
1060 1 14.2431 5.12548 3.6747
1458 1 14.9353 4.42546 2.94205
1225 1 15.1709 5.59121 3.23353
1071 1 15.1868 5.04925 4.2463
1480 1 17.4885 4.6427 3.18154
1727 1 18.7319 4.54607 3.10607
1473 1 19.907 5.06581 3.25192
1716 1 19.0122 4.95044 4.14904
1782 1 21.18 4.90029 2.90096
1789 1 20.7941 5.28798 4.04551
2028 1 22.7491 4.99715 3.12059
1713 1 21.9781 4.94139 3.80605
2030 1 22.7842 5.69804 3.90925
2027 1 23.61 4.62825 3.33884
2040 1 25.5804 4.56023 3.46203
2348 1 24.3887 5.51076 3.1515
2036 1 26.5455 4.36822 3.24033
2112 1 26.3068 5.43365 3.85023
2335 1 27.5535 4.45463 2.8793
2035 1 27.1606 4.8834 3.73102
2037 1 28.2638 5.26752 4.08492
108 1 28.3911 5.27287 3.02295
107 1 28.6366 4.4213 3.41537
194 1 29.304 5.34898 4.08126
204 1 0.0624804 6.00611 3.59908
190 1 0.334132 7.13513 3.65842
189 1 0.845217 6.56289 3.11388
202 1 1.10969 6.48689 4.27423
184 1 2.25837 6.65379 3.62564
419 1 3.69238 5.85922 3.53588
281 1 3.19953 6.67289 3.02726
500 1 4.51261 7.11388 3.61343
512 1 5.06081 6.26838 4.00734
594 1 6.9068 5.76409 3.5093
593 1 5.92816 5.89505 3.43015
587 1 6.51482 6.80062 4.22679
819 1 7.27189 6.76137 3.28007
811 1 8.38146 6.45574 2.98173
504 1 7.7489 6.38444 4.09539
1135 1 9.62291 6.05806 3.0083
812 1 8.80129 6.33871 3.78145
897 1 9.84817 6.17946 3.96639
824 1 10.9704 5.71695 2.88571
898 1 10.6497 6.4776 3.53
1277 1 11.4904 6.94588 2.98492
1170 1 12.0342 6.46352 3.72159
1137 1 13.2528 5.7452 3.57224
1148 1 14.1165 6.28722 3.40396
1233 1 13.2917 6.97706 4.023
1160 1 14.924 6.76089 4.12393
1142 1 15.554 6.93984 2.88355
1226 1 16.0573 5.91362 3.22085
1481 1 16.8818 6.69861 3.19389
1558 1 16.1881 6.73347 3.96534
1464 1 17.5449 5.7356 3.52813
1489 1 17.7197 6.62774 4.09541
1715 1 18.5408 5.90942 4.16035
1474 1 19.4325 5.8428 3.54125
1795 1 18.7916 6.91586 3.82834
1774 1 21.3226 6.73925 3.28836
1781 1 20.6331 5.72948 2.99744
2121 1 20.4998 6.44904 3.93098
1773 1 21.5017 5.7964 3.55337
2029 1 22.3648 6.51589 3.48362
2031 1 23.3256 6.01207 2.9942
1791 1 23.41 6.85892 3.69101
2118 1 23.9698 5.78766 4.0708
2347 1 25.3292 5.79792 3.41954
2102 1 24.4369 6.65121 3.32622
2358 1 26.8602 5.82038 2.89735
2337 1 26.5082 6.65769 3.2405
2414 1 27.111 6.01156 4.18463
2428 1 26.7682 7.02453 4.22275
2499 1 28.2678 6.99789 3.50115
2413 1 27.803 6.13855 3.66353
207 1 28.8228 6.06044 3.57771
2438 1 29.2772 6.96771 3.82718
294 1 1.39355 7.52891 3.65561
58 1 1.3932 8.40969 2.8663
279 1 2.40745 7.44312 4.20528
280 1 2.53537 8.23031 3.71662
53 1 1.5805 8.30697 4.26103
575 1 3.79679 8.43476 3.11048
282 1 3.13076 7.57714 3.13641
569 1 5.49541 7.95595 3.57501
506 1 6.70574 7.69778 3.07577
588 1 6.48271 7.78821 4.16901
565 1 7.57689 7.84718 3.63738
566 1 8.45446 7.42784 3.49321
502 1 9.18483 8.38536 2.8948
803 1 9.53219 7.65957 3.67744
919 1 8.61461 8.26787 4.15978
1214 1 10.8289 7.70808 3.33514
804 1 10.2536 7.23371 4.13432
686 1 10.5498 8.48887 4.06665
1269 1 12.4965 7.4399 2.99808
1139 1 11.6873 7.42061 3.87319
1140 1 12.2813 8.16676 3.69407
1216 1 13.9128 7.76926 2.90029
1468 1 13.6646 7.89591 4.10276
1553 1 14.9823 7.73033 3.47363
1554 1 15.9177 7.75532 3.37384
1557 1 16.7276 7.50199 4.11819
1454 1 16.836 8.5007 3.4627
1490 1 17.9053 7.15341 3.36231
1807 1 18.2791 8.5695 3.68413
1808 1 17.9261 7.89088 4.19607
1547 1 19.1688 7.99257 3.17475
1548 1 19.8128 7.27544 3.15425
1893 1 19.6414 7.64067 4.23315
1868 1 19.9002 8.43646 3.64301
1853 1 20.8852 7.78328 2.92513
2122 1 20.7272 7.4255 4.14843
1859 1 21.0867 8.52896 3.69908
2107 1 21.6896 7.61486 3.76099
1792 1 22.8412 7.55184 3.35167
2169 1 24.1988 7.80961 2.91056
2275 1 24.0699 8.05828 3.95343
2276 1 24.9176 7.62301 3.90435
2199 1 25.2295 8.3185 3.16661
2338 1 26.3942 7.61227 3.36746
2191 1 25.8065 8.20134 4.08462
2518 1 27.0408 8.44293 4.12673
210 1 28.4759 7.90389 3.99003
2433 1 28.0568 8.34158 3.0622
2427 1 27.4593 7.54368 3.83681
2355 1 29.447 7.99594 3.1525
212 1 29.2919 8.4666 4.25
274 1 0.12645 9.70277 3.86857
54 1 1.32644 9.20997 3.93297
273 1 0.350946 8.75162 4.06703
57 1 1.83149 9.33829 2.92122
276 1 2.3847 9.29066 3.98944
24 1 2.73028 8.78809 2.87422
275 1 3.17779 9.56406 3.63972
277 1 3.98769 9.03355 4.22237
30 1 5.31297 9.9248 2.98255
571 1 5.44565 8.79372 2.86754
278 1 4.67076 8.94018 3.52392
596 1 6.0269 9.52249 3.84054
577 1 7.10744 9.83941 2.96348
505 1 6.4294 8.57201 3.46378
590 1 7.43764 8.92548 3.33071
589 1 8.09947 9.16821 3.90403
905 1 9.57055 8.7435 4.01021
584 1 9.84425 9.87676 4.21063
895 1 9.0408 9.5286 3.52632
1213 1 11.0631 8.6608 3.24007
906 1 10.1297 9.07079 3.33447
886 1 10.8881 9.61903 2.89844
1229 1 10.7663 9.47025 4.00875
903 1 11.9071 9.61562 3.51001
1235 1 12.8498 8.90835 4.24029
1219 1 12.9735 9.55566 3.41139
1152 1 13.5687 8.57843 3.46474
1220 1 13.9229 9.78453 3.35755
1228 1 15.4134 8.67176 3.55301
1227 1 14.9718 9.5488 3.6467
1570 1 16.2105 9.38396 3.28467
1574 1 18.4071 9.90793 3.44897
1573 1 17.6477 9.45162 3.10575
1497 1 17.478 8.91028 4.2759
1549 1 18.9156 9.04739 2.98077
1550 1 19.093 9.14939 3.93305
1867 1 19.9181 9.38875 3.41441
1871 1 21.3158 9.54128 3.67488
1860 1 22.0143 8.66537 3.71006
1861 1 22.5296 9.71148 3.69139
2177 1 23.0972 8.94458 3.07407
2190 1 23.2453 8.72409 4.19294
1926 1 24.4134 9.65738 3.28263
2192 1 25.4873 9.11178 4.20831
2200 1 26.1297 8.66478 3.11332
2505 1 26.8837 9.40248 3.47002
290 1 27.9622 9.51867 3.06094
2280 1 27.7286 9.45367 4.05027
291 1 29.65 8.93096 3.25558
2457 1 28.5851 8.97215 3.83815
292 1 29.0667 9.74774 3.31396
42 1 0.446027 0.768076 4.48684
39 1 1.88533 1.06243 4.94221
49 1 2.64444 0.0799191 5.61615
360 1 3.62437 0.368711 4.37296
448 1 3.8305 1.37593 4.6758
447 1 3.07297 0.974514 5.08474
358 1 4.99407 0.778829 4.73097
595 1 5.81119 0.329835 4.32325
781 1 5.96242 1.18128 4.87291
782 1 6.67159 0.552996 4.90885
615 1 7.88105 0.387876 5.04952
683 1 7.44816 1.30438 5.14043
682 1 8.74341 0.840964 4.98672
654 1 9.79719 0.833779 4.65995
653 1 9.61113 0.0741827 5.33119
1230 1 10.7309 0.208905 4.65343
910 1 10.2796 0.807831 5.51596
909 1 11.1818 0.57693 5.6909
1206 1 11.7619 0.399763 4.69163
1208 1 12.6259 0.356991 5.69267
1240 1 12.7016 1.13173 4.96514
1207 1 13.3419 0.126312 5.02183
1248 1 14.1889 0.282788 5.71364
677 1 14.0544 1.17972 5.11011
1246 1 14.3215 0.118438 4.38055
999 1 15.3711 0.632836 4.50713
1401 1 15.7659 0.688123 5.66132
1328 1 16.4747 1.37478 5.06426
1402 1 16.5694 0.23636 5.40228
1327 1 17.2954 0.857515 4.79389
1639 1 18.5235 0.417452 4.63404
1896 1 18.7298 0.704472 5.60843
1659 1 20.2258 1.11471 4.66493
1634 1 21.1335 0.434577 4.59672
1658 1 20.6935 0.0907667 5.66516
1856 1 22.7624 0.250496 5.44885
1855 1 22.8513 0.257632 4.47506
1635 1 22.3888 1.16433 4.92889
2193 1 23.4403 1.08705 5.39682
2194 1 24.1512 0.424183 5.22911
2256 1 25.223 1.07132 4.40714
1983 1 25.1934 0.492391 5.42735
2513 1 26.5768 0.97389 4.65954
2274 1 25.9914 0.136818 4.68686
2514 1 26.5015 0.847962 5.57961
2279 1 27.8836 0.376134 4.34415
2295 1 28.1835 1.23402 4.79182
1976 1 27.395 0.501704 5.34314
2293 1 29.7567 0.327845 5.16571
2528 1 29.1066 0.79347 4.36663
2304 1 28.9358 0.524462 5.65434
2385 1 29.5653 1.42014 5.14737
2352 1 0.839531 1.46209 5.06593
2447 1 1.22561 2.40028 5.58594
2351 1 0.194714 2.0474 4.77951
122 1 1.56707 1.98436 4.56889
45 1 2.51713 1.9226 5.23473
46 1 2.0968 2.81229 5.25557
128 1 3.28275 2.6901 5.09361
61 1 3.67978 1.69135 5.60124
357 1 4.80782 1.67345 4.46907
437 1 5.08695 1.75955 5.39252
428 1 6.70096 1.86009 4.89064
349 1 5.8679 2.67048 5.1644
343 1 7.7549 2.02888 4.42182
665 1 8.54085 2.83811 4.67681
361 1 7.73341 2.59729 5.29382
362 1 8.37501 1.86122 5.21167
754 1 9.41492 1.76754 5.32625
753 1 9.48189 2.71212 5.24135
982 1 10.3963 1.95829 4.59914
981 1 10.4631 2.82954 4.29213
995 1 11.1827 1.56646 5.00338
996 1 10.4432 1.83485 5.60127
672 1 10.6391 2.78726 5.33107
737 1 11.4854 2.61046 4.71224
738 1 12.2426 2.16661 4.36152
1237 1 12.3477 2.04925 5.36068
1239 1 13.1909 1.89577 4.62957
998 1 15.118 2.39874 4.56297
1090 1 15.6497 2.00127 5.33583
1162 1 14.3649 2.2956 5.40605
1403 1 16.4783 2.43951 4.96
1392 1 18.2853 1.52066 4.84173
1319 1 17.313 1.86017 5.34502
1741 1 18.1848 2.58041 5.09904
1641 1 19.1509 2.25934 4.7016
1642 1 19.478 1.80951 5.51691
1660 1 20.4387 2.03874 4.33242
1717 1 21.2947 1.47549 4.71601
1719 1 20.5948 1.77857 5.48212
1733 1 21.0274 2.73933 4.95807
1734 1 21.8892 2.32564 4.55553
1654 1 22.4692 2.73796 5.5455
1648 1 21.5674 1.79887 5.65838
1623 1 23.1492 2.05717 4.8591
1948 1 25.4644 2.44156 4.59995
1955 1 24.4064 1.49091 4.84914
1947 1 25.4849 2.46942 5.54779
1945 1 24.4209 2.41565 5.21893
2255 1 25.6442 1.55552 5.16164
2362 1 26.1397 1.81378 4.29972
1973 1 26.5643 2.33165 5.64377
2123 1 26.7134 2.8353 4.31811
2282 1 27.7314 2.3282 4.35418
2296 1 27.3775 1.63894 5.16014
2386 1 28.8937 2.05408 5.09588
2442 1 29.9517 2.75622 5.4885
2448 1 0.766402 2.86167 4.85754
2360 1 0.307977 3.79181 5.11289
127 1 2.80194 3.51645 4.88339
126 1 1.77446 3.86997 4.94006
130 1 3.79524 3.66599 5.30015
129 1 4.38604 2.93306 5.3193
431 1 5.46878 3.54746 5.55798
760 1 6.83148 3.17459 5.00068
432 1 5.75138 3.65819 4.59583
667 1 8.19475 3.3691 5.65938
829 1 7.51049 4.15082 5.317
761 1 8.85692 3.86924 4.85132
748 1 9.87502 3.61613 4.60336
671 1 11.0545 3.55358 4.84178
778 1 10.3005 3.88992 5.5565
1075 1 12.2346 3.3784 4.53203
1167 1 12.7396 4.13147 5.16268
1014 1 12.0496 3.02542 5.43287
983 1 14.1209 2.97253 4.71675
1081 1 13.1234 3.00606 4.87948
1079 1 13.7319 4.24097 5.09343
1080 1 14.4152 4.11915 4.46443
1134 1 15.1681 3.46311 4.87976
1381 1 16.2928 3.68579 4.59593
1404 1 16.0559 3.08045 5.62146
1420 1 17.3065 4.07959 4.37333
1742 1 18.229 3.53304 5.29088
1411 1 17.374 3.19343 4.85598
1311 1 19.8655 3.20423 4.7955
1731 1 19.0306 4.12543 4.90365
1752 1 19.2041 2.89236 5.66148
1732 1 19.9674 4.20918 5.28738
1650 1 21.0069 3.78962 5.00083
1649 1 20.5864 3.34036 5.70629
1729 1 22.3006 3.32148 4.53494
1730 1 22.032 3.69174 5.34253
1624 1 23.4769 2.87245 5.18783
1627 1 23.4543 3.25665 4.32362
2046 1 24.1472 4.05015 5.48492
2041 1 22.9685 4.12845 5.3455
1946 1 24.7028 3.29059 4.93234
2049 1 26.6371 3.41153 5.58054
1966 1 25.7779 4.09736 5.50171
1965 1 25.845 3.31678 4.91745
2050 1 27.055 4.18258 5.25459
2281 1 27.4061 2.93739 5.0752
2365 1 27.644 4.25746 4.39583
2366 1 28.1774 3.63973 4.87725
2285 1 28.5347 2.97682 5.57048
200 1 29.1359 4.15751 4.33506
2441 1 29.3633 2.94294 4.75473
203 1 0.493645 5.64763 4.30011
2369 1 0.961047 4.55586 4.32134
124 1 0.667687 4.77825 5.20539
123 1 1.1864 5.63455 5.04801
592 1 2.39672 5.33483 5.04398
191 1 2.95332 4.5462 5.14911
116 1 3.92585 4.72827 5.16988
591 1 3.24112 5.70201 5.07441
441 1 4.9399 5.18896 4.36981
115 1 4.87242 4.53838 5.28115
522 1 4.95269 5.63828 5.48706
348 1 6.79412 4.81745 4.88458
827 1 7.6815 5.22898 5.67333
830 1 8.17364 4.60111 4.83011
503 1 7.50714 5.62976 4.66234
751 1 8.94849 5.04629 4.45579
752 1 9.85481 4.716 4.39575
749 1 8.77268 5.30538 5.68289
750 1 9.41703 4.60404 5.36002
846 1 10.247 5.56779 4.91222
757 1 11.0244 4.63117 4.39646
1094 1 11.2314 4.79599 5.56435
1168 1 12.1003 4.76788 4.77504
1059 1 14.2054 5.61177 4.5004
1189 1 13.1815 5.11974 4.81597
1097 1 14.9447 4.83549 5.37574
1098 1 15.7266 4.49034 5.01369
1475 1 16.7754 5.00197 4.87871
1496 1 15.9393 5.55686 5.25304
1463 1 17.6221 5.1418 4.3448
1397 1 17.5712 4.5183 5.34497
1398 1 18.3378 5.02641 5.07249
1725 1 19.3893 4.97078 5.58359
1799 1 19.8409 5.57813 4.67275
1701 1 20.2857 4.5831 4.40729
1702 1 20.6697 4.97094 5.1798
1723 1 21.4191 5.67541 5.60997
1714 1 21.5372 4.59004 4.65555
2042 1 22.5472 4.3979 4.48951
1739 1 22.5138 5.69588 5.59342
1962 1 23.5995 4.49633 4.39405
1961 1 23.1571 5.21881 4.70802
2025 1 24.8298 4.89174 5.35991
2026 1 24.7108 5.05663 4.44222
2128 1 25.6087 5.53536 5.15172
2367 1 26.0737 4.73264 4.68183
2368 1 26.9577 5.10859 4.73886
2465 1 28.1475 4.70293 5.26267
2436 1 27.7399 5.61496 5.70189
117 1 29.6946 4.78461 5.13563
193 1 28.7829 5.34696 4.88725
138 1 0.422444 6.60393 5.04596
137 1 1.1459 6.37902 5.6276
284 1 2.08125 6.26542 4.85985
283 1 2.80644 6.73918 5.26084
201 1 1.57372 7.06724 4.8684
499 1 3.97318 6.87736 4.43891
183 1 2.93664 6.52416 4.30001
219 1 4.07 6.30334 5.40448
511 1 5.53113 7.03978 4.34089
509 1 4.94324 6.72702 5.30995
514 1 6.17968 5.75784 4.88625
513 1 6.93155 6.30865 5.33561
1064 1 8.329 6.09294 5.05555
1063 1 7.85081 6.8301 5.40366
917 1 8.34573 7.1298 4.52751
845 1 9.32761 5.94717 4.89308
831 1 9.86676 6.8763 5.12421
835 1 10.8105 6.42691 4.71807
1156 1 11.2638 6.53187 5.63051
836 1 11.4642 5.7258 4.71324
1169 1 12.0575 6.61676 4.70029
1153 1 12.6297 5.81031 5.43156
1190 1 13.1667 6.07073 4.70888
1252 1 13.1615 7.04866 5.14059
1255 1 13.9928 6.70583 5.6359
1072 1 15.6163 5.91553 4.36552
1177 1 14.8007 6.30886 5.06225
1476 1 16.7855 5.84287 4.36493
1499 1 16.0861 6.54839 5.18174
1495 1 16.8713 5.75947 5.55124
1485 1 17.2059 6.66245 4.98893
1421 1 18.4705 6.85315 5.01899
1486 1 17.7257 5.86442 5.05139
1478 1 18.8924 5.83912 5.29111
1796 1 19.4023 6.55049 4.49661
1790 1 20.7812 5.93063 4.83204
1800 1 20.094 5.77138 5.54157
1801 1 20.1662 6.96434 5.08549
1787 1 21.5587 6.67014 4.30934
1883 1 21.6599 6.64701 5.56828
1788 1 21.7971 5.81706 4.63034
2114 1 22.4905 6.52038 4.93755
2117 1 23.592 6.27098 4.83439
2127 1 24.8347 6.10119 5.03565
2129 1 24.9496 6.72506 4.33439
2111 1 25.9701 6.21651 4.40485
2140 1 26.8647 6.7075 5.32631
2133 1 25.7844 6.86651 5.39434
2445 1 27.9588 6.81459 4.58278
2038 1 27.9457 5.83595 4.75116
2446 1 28.3863 6.38102 5.40469
118 1 29.8607 5.7184 5.04724
113 1 29.6513 6.9614 5.59858
2437 1 29.2032 6.49331 4.63342
293 1 0.768328 7.66199 4.4278
214 1 0.327803 8.27515 5.09141
2308 1 2.15522 7.84933 5.28025
515 1 3.81223 7.90117 4.48024
35 1 3.13222 7.76666 5.31028
269 1 4.17451 7.81621 5.46886
36 1 3.13421 8.55052 4.73251
516 1 4.70572 8.20427 4.33902
510 1 5.22669 7.64082 5.15333
582 1 6.42407 7.47046 5.1525
916 1 7.01313 8.36446 5.65357
603 1 7.21776 8.49573 4.44982
918 1 7.35734 7.35503 4.56969
920 1 8.16324 8.02895 4.99496
1173 1 9.58579 7.96676 4.89245
833 1 8.97785 7.34853 5.38135
921 1 10.848 7.38192 5.08276
1174 1 10.1104 8.22371 5.61077
685 1 11.0354 8.32744 4.8753
1234 1 12.6144 7.54985 4.34831
1242 1 12.1656 8.30063 5.13494
1159 1 14.2614 7.17167 4.65449
1467 1 13.2174 8.12909 4.93201
1541 1 14.1548 8.53092 5.10473
1542 1 14.7045 8.41407 4.30937
1145 1 15.6674 7.50523 4.51544
1576 1 14.3686 7.65625 5.59443
1146 1 15.2131 7.20297 5.31446
1564 1 15.571 8.46698 5.11966
1563 1 16.1153 8.51853 4.29717
1559 1 17.0822 7.66664 5.28775
1560 1 16.174 7.66613 5.65961
1498 1 17.6234 8.53086 5.1503
1805 1 18.3528 7.93186 5.57377
1894 1 19.2868 7.49064 5.06012
1903 1 18.9425 8.57076 4.92937
1492 1 20.1232 8.16146 5.70994
1491 1 20.3593 8.25368 4.75349
1863 1 21.1891 7.52279 5.24964
1864 1 21.4978 8.30662 4.70996
2108 1 22.3275 7.56104 4.46383
2197 1 23.9456 8.0802 4.98061
2198 1 23.2863 7.37221 4.83702
1885 1 22.8953 8.15199 5.39793
2130 1 25.6924 7.26002 4.52171
2202 1 24.6803 7.3987 5.36368
2451 1 25.8455 8.49783 5.24127
2443 1 26.7217 7.75131 5.05106
2444 1 27.6241 7.9431 4.85163
2203 1 27.9166 7.3901 5.68958
209 1 28.7032 7.48171 4.78512
2439 1 29.3358 8.48629 5.39184
211 1 29.785 7.6192 4.47404
2292 1 0.541062 9.76762 4.78761
44 1 1.06631 8.89314 5.04774
43 1 0.523471 9.31041 5.70414
34 1 1.64261 9.90195 4.7502
33 1 2.10038 9.18157 5.23122
359 1 3.13598 9.65166 4.78577
59 1 3.98435 8.96522 5.70037
261 1 4.37574 9.95663 4.88883
600 1 4.74811 8.85569 5.07196
599 1 5.29127 9.37714 4.48194
604 1 6.96039 9.39715 4.29043
598 1 6.04482 8.67386 4.4786
368 1 6.19485 9.62853 5.11696
367 1 7.08494 9.31089 5.381
597 1 5.82639 8.70884 5.37541
585 1 8.00888 8.96991 5.41522
583 1 8.92647 9.85166 4.60455
914 1 9.17484 8.90633 4.95237
924 1 8.71598 9.67846 5.63998
913 1 10.119 9.2281 4.89583
1223 1 11.7704 9.37119 5.38032
1224 1 11.9069 9.11576 4.38855
1236 1 12.8303 9.29431 5.16702
1245 1 13.8153 9.26188 4.34376
1247 1 14.4621 9.44208 5.34308
1315 1 15.1569 9.3212 4.65746
1316 1 15.5553 9.71058 5.49391
1579 1 16.6923 9.15144 5.39671
1580 1 16.5814 9.59261 4.5782
1904 1 18.4047 9.33965 4.67194
1561 1 17.5607 9.77244 5.13303
1887 1 19.8612 9.66861 4.45631
1888 1 19.9652 9.06576 5.247
1895 1 19.2965 9.91675 5.47806
1872 1 20.835 9.25717 4.50918
1890 1 21.0573 8.65813 5.55146
1637 1 22.3452 9.16636 4.59371
1643 1 21.7641 9.61764 5.31129
1638 1 22.7835 9.19407 5.44056
2189 1 24.1574 8.95248 4.32428
1949 1 23.5404 9.6985 4.93126
1950 1 23.8128 8.97234 5.50192
2512 1 24.7191 9.49733 5.65068
2452 1 24.8737 8.60662 5.23013
2511 1 25.5334 9.40954 5.20049
2517 1 26.4911 9.0428 4.53228
2119 1 26.6299 8.98692 5.67789
1975 1 27.2175 9.61053 4.97044
2458 1 28.4126 8.88525 4.76989
2120 1 27.5873 8.63902 5.69536
2527 1 28.84 9.89127 4.42632
2291 1 29.6876 9.30002 4.77636
300 1 0.652843 0.475136 5.87758
2377 1 0.284527 1.08929 7.03572
40 1 1.60505 1.32254 5.79662
70 1 2.30317 0.58314 6.39996
364 1 4.0279 0.00542677 5.95119
67 1 4.12623 0.745755 6.69678
374 1 5.55733 1.17075 6.57978
363 1 4.72902 0.603994 5.7444
373 1 5.93469 0.625532 5.84437
618 1 6.9746 0.257386 5.81392
323 1 7.10137 1.30825 6.93742
622 1 8.0348 0.770981 6.47829
681 1 8.84737 0.939741 5.98801
698 1 9.72352 0.128486 6.74556
674 1 10.7067 0.677276 6.55402
1238 1 12 1.21461 5.77098
1572 1 12.6922 0.666554 6.63004
1571 1 13.6982 0.819277 6.61839
1322 1 14.5459 0.278443 6.69078
1332 1 14.7998 1.18935 5.8676
1331 1 15.3217 1.07712 6.71226
1323 1 16.6296 0.12375 6.45444
1333 1 16.2558 1.398 6.54801
1661 1 17.3999 0.748735 5.86848
1662 1 17.1896 0.86693 6.8116
1897 1 18.1821 0.707029 6.67369
1657 1 19.9389 0.648592 5.79372
1898 1 19.0906 0.204225 6.53873
1655 1 19.8287 1.30665 6.63513
1720 1 20.816 1.17785 6.20264
1737 1 21.2896 0.0783274 6.71139
1738 1 20.3438 0.282188 6.63559
1647 1 21.684 0.87974 5.81214
2210 1 22.2494 0.6865 6.80331
1980 1 21.476 1.1822 7.09822
1954 1 23.2256 0.719585 6.39886
2224 1 24.1748 1.01187 6.93405
1922 1 24.4164 0.288125 6.20542
2223 1 25.0584 0.570875 7.09199
1978 1 25.9506 0.907823 6.72721
2531 1 26.0806 0.0165281 7.12281
2242 1 28.1354 1.00344 6.87088
2241 1 27.3697 0.713412 6.41632
299 1 29.8656 1.0033 6.02806
2283 1 29.7607 0.0204247 6.66606
301 1 0.365431 2.04088 6.0378
302 1 1.02841 1.69861 6.65492
143 1 1.0426 2.65516 6.70077
48 1 2.05588 2.42032 6.22113
69 1 2.07185 1.45538 6.91976
62 1 2.96503 1.86084 6.25593
197 1 3.80648 2.78099 6.18876
365 1 4.53133 1.82297 6.50087
438 1 5.69628 2.06263 6.10331
198 1 4.81723 2.69195 6.2488
324 1 6.6898 1.46535 6.12434
759 1 6.85808 2.56159 5.77008
792 1 6.85921 2.40428 6.84946
689 1 8.3199 1.86882 6.81429
684 1 7.68564 1.56529 6.03673
668 1 7.83527 2.79056 6.35464
690 1 8.72528 2.27992 6.07598
641 1 9.74051 1.57442 6.47467
673 1 11.0831 1.47265 6.42971
642 1 10.3072 2.37565 6.51096
1070 1 12.7906 1.89042 6.59286
1013 1 11.6062 2.47067 6.0826
678 1 13.3838 1.57454 5.74952
1069 1 13.5567 2.52273 6.70681
1021 1 14.1819 1.74713 6.68593
1089 1 15.4991 2.25105 6.3044
1334 1 16.555 2.11504 5.98453
1320 1 17.9877 2.12774 5.94326
1366 1 17.2025 1.89929 6.74818
1326 1 18.8713 2.21374 6.52459
1410 1 19.8926 2.5104 6.33509
1409 1 20.7513 2.27231 6.69922
1636 1 22.4904 1.59137 5.80702
1986 1 21.8116 2.5834 6.62281
1653 1 23.0417 2.38025 6.24902
1957 1 23.7493 2.79606 7.00435
1951 1 24.09 1.72284 6.03716
1646 1 23.0393 1.6593 6.91582
1952 1 25.0463 1.46441 6.07146
1972 1 24.8704 2.27339 6.76667
1974 1 25.9946 1.79382 6.1183
2373 1 27.0919 1.79608 6.46452
1967 1 26.0039 2.82113 6.44891
2286 1 27.8546 2.27838 5.73798
2374 1 27.1882 2.72283 6.42596
2310 1 28.2939 2.1962 7.00325
2303 1 28.8446 1.4412 5.89134
2383 1 29.3376 2.74691 6.23629
141 1 0.986761 3.35831 5.87836
142 1 0.159149 3.50471 6.2549
150 1 1.22009 3.77686 6.91158
125 1 2.32072 4.0272 5.74472
47 1 1.95131 3.34533 6.44624
51 1 2.91425 3.22257 6.00988
52 1 2.92046 3.21162 7.06022
457 1 3.72192 3.90595 6.41411
458 1 4.50237 3.46133 6.86913
440 1 6.41395 3.94267 5.71787
449 1 6.05209 3.12544 6.53875
456 1 6.98788 3.43387 6.52296
694 1 8.46464 4.01885 6.70157
762 1 9.22391 3.55336 5.72055
675 1 8.76655 3.11656 6.95149
783 1 9.75634 3.41401 6.61951
777 1 10.9465 3.76831 6.22619
1096 1 12.5089 2.98438 6.94218
771 1 11.9926 3.96899 6.12833
1161 1 14.0403 3.08366 5.76648
1082 1 13.0101 3.00141 5.85672
1172 1 13.2742 4.16214 6.54451
1150 1 14.027 3.59921 7.02725
1133 1 15.0935 3.65689 5.80879
1149 1 14.6229 2.88865 6.68436
1506 1 14.9078 4.25897 6.96273
1418 1 15.6773 2.97337 7.08897
1412 1 17.1067 2.94403 5.74267
1084 1 16.3319 3.61963 6.49114
1164 1 16.5608 4.24988 5.73497
1083 1 16.9683 3.50741 7.13787
1163 1 17.3332 3.87361 6.19501
1751 1 18.529 3.28344 6.22955
1427 1 17.898 3.08484 7.07518
1670 1 19.322 3.15746 6.82173
1726 1 19.1735 4.09014 5.91897
1664 1 21.1457 4.22396 6.26198
1688 1 20.0926 3.86678 6.71855
1690 1 21.1606 3.41674 6.8152
1689 1 22.0429 3.61868 6.42082
1970 1 24.2628 3.0419 5.97905
1969 1 23.3744 3.41669 6.0606
1958 1 23.0545 3.44269 7.06593
2064 1 23.8947 3.96186 6.80966
2045 1 24.914 3.97725 6.05598
2063 1 24.7685 3.48757 7.0218
2137 1 26.7063 3.48811 6.83846
2138 1 25.808 3.83041 6.74958
2372 1 27.584 3.68171 6.01904
2381 1 28.3934 4.23046 6.85488
2382 1 28.2985 3.33465 6.72109
2384 1 29.2669 3.61158 5.77441
149 1 1.24325 4.45619 6.15235
2454 1 0.0834745 4.45124 6.02656
134 1 0.646886 5.28301 6.38114
133 1 0.44583 4.55179 6.90459
547 1 2.61342 4.3745 6.80991
469 1 2.58861 5.37094 6.63775
236 1 1.77948 5.2916 5.80246
192 1 3.08461 4.82895 6.02439
518 1 4.09383 4.82277 6.59922
517 1 4.89838 4.37171 6.38247
521 1 5.09546 5.33757 6.40856
439 1 5.80423 4.68966 5.79388
763 1 6.73378 5.27201 5.81793
464 1 5.90108 4.51864 6.88602
764 1 6.21588 5.48824 6.58887
455 1 7.29632 4.33953 6.33621
693 1 8.4601 4.33312 5.81799
443 1 7.80775 5.17875 6.76951
769 1 9.55456 5.16142 6.28126
765 1 8.98963 4.86085 7.02324
770 1 10.0985 4.43991 6.6896
1103 1 11.1792 5.00082 6.68212
1093 1 11.7109 5.5653 5.80656
772 1 12.3707 4.87993 6.32439
1104 1 11.8534 4.55806 7.11983
1171 1 13.3953 4.8442 5.87698
1192 1 13.8216 4.82329 7.02056
1505 1 14.3332 4.38605 6.19085
1191 1 14.5282 5.50764 6.89338
1501 1 15.6137 5.24836 6.94239
1414 1 15.7278 4.62435 6.1883
1413 1 16.6013 4.99094 6.33414
1665 1 17.9539 5.40197 5.98397
1666 1 18.1611 4.47775 6.16577
1423 1 17.5825 5.275 7.13094
1686 1 19.863 4.95834 6.58201
1405 1 18.8575 4.8497 7.03609
1663 1 20.723 5.08687 6.17786
1754 1 21.9649 4.79116 6.81832
1753 1 21.923 4.78156 5.79941
1684 1 23.0389 4.95113 6.89363
1963 1 23.47 4.89585 5.95109
2054 1 23.9352 5.37151 6.93375
1964 1 24.3683 4.72503 6.34591
1722 1 24.7814 5.70989 6.13605
2043 1 25.5232 4.89452 6.29732
2044 1 25.049 4.7139 7.11178
1811 1 26.1898 4.76325 7.0535
1812 1 26.4759 4.35456 6.19098
2449 1 26.6875 5.41664 5.91152
2371 1 27.4006 4.53622 6.46073
2466 1 28.7224 4.73191 6.03163
2453 1 29.4756 4.37116 6.76448
114 1 0.0421611 6.32747 6.09449
235 1 1.52108 5.75248 6.67218
206 1 2.24571 6.3075 6.01458
220 1 4.05714 5.99069 6.31261
205 1 3.13122 6.47969 6.24724
285 1 3.78275 6.97865 7.13628
839 1 5.00641 6.53882 6.32957
840 1 5.78068 6.17995 5.85803
608 1 6.57615 6.74829 6.3617
849 1 7.07422 6.02531 7.02764
828 1 7.60316 6.09776 6.06558
526 1 7.92914 6.88225 6.65446
832 1 9.7247 6.14703 5.83564
851 1 8.69199 6.31937 5.98226
852 1 8.70255 5.7679 6.77414
822 1 9.38999 7.06445 6.35175
922 1 10.6008 7.12991 5.98417
843 1 10.6251 5.85757 6.18432
844 1 10.4371 6.45924 6.99317
1155 1 11.6179 6.30066 6.56056
1154 1 12.3484 6.60325 5.81931
854 1 12.5554 6.94397 6.77571
1182 1 12.6673 5.79604 6.52606
1181 1 13.6017 6.02992 6.61601
940 1 13.6886 7.07093 6.9978
1178 1 14.8905 5.91064 5.94585
1256 1 14.5387 6.98424 6.34837
1415 1 15.5757 6.90796 6.42647
1416 1 15.9952 6.07379 6.151
1507 1 16.9773 6.06543 6.66342
1500 1 16.7195 6.80733 5.90027
1508 1 16.2611 6.59029 7.02418
1744 1 17.7732 6.35367 5.97938
1743 1 18.1284 6.5259 6.84168
1823 1 17.1745 7.10936 6.84571
1422 1 18.75 6.76066 6.02329
1802 1 19.9746 7.04865 6.09464
1477 1 19.0728 5.79638 6.23896
1826 1 19.175 6.5885 6.85713
1735 1 19.9846 6.10867 6.723
1724 1 20.959 6.0732 6.3307
1740 1 22.1985 5.88239 6.52514
1879 1 22.2651 6.86109 6.7024
1721 1 23.9422 5.80931 5.72758
2113 1 22.977 6.63265 5.74999
2053 1 23.4333 6.14213 6.94708
2116 1 24.0809 6.63227 6.18364
2149 1 24.2621 7.10076 7.04989
2134 1 25.7025 6.17319 6.08949
2115 1 24.9864 6.88635 6.22925
2450 1 26.6525 6.09437 6.58176
2139 1 26.4157 7.07262 6.11283
2435 1 27.5487 6.40563 6.16185
216 1 28.4831 6.00462 6.51386
215 1 29.1781 5.82414 5.90392
2204 1 28.6317 6.99374 6.1348
213 1 0.505561 7.56897 5.76956
224 1 1.39993 7.44198 6.37027
222 1 0.247104 7.16573 6.84353
218 1 0.0642702 8.04377 6.49831
223 1 2.12493 7.88779 6.90912
227 1 2.58567 7.32709 6.16721
2307 1 1.47871 8.27357 5.83213
295 1 2.58436 8.41538 6.08309
270 1 4.0112 7.25362 6.26679
228 1 3.1172 7.82464 6.76426
60 1 4.06939 8.4064 6.50938
611 1 4.95094 7.84937 6.31445
581 1 6.1211 7.87684 6.02649
607 1 5.88837 7.26129 6.80447
927 1 6.63837 8.30636 7.05693
928 1 6.97194 7.46239 6.99155
915 1 7.4258 7.54933 6.0063
586 1 8.04665 8.34029 6.21989
834 1 9.12528 8.07012 6.02283
821 1 9.80728 7.8194 6.66863
857 1 8.63067 7.70969 7.02518
936 1 11.3203 8.0078 5.84922
935 1 10.8359 7.99599 6.71321
1251 1 12.5406 7.56455 5.72198
853 1 11.9288 7.6656 6.5086
1266 1 13.5274 8.54166 5.99684
1166 1 14.2507 8.00133 6.98763
1265 1 13.1163 7.87096 6.62417
1335 1 15.4357 8.01812 6.70404
1575 1 14.7655 8.4567 5.95634
1588 1 16.631 7.98971 6.49233
1806 1 17.7681 7.48594 6.15509
1494 1 17.696 8.50997 6.39607
1825 1 19.1704 7.49794 6.98711
1816 1 18.6213 8.34384 6.54887
1603 1 19.7527 8.41259 7.05186
1793 1 21.078 7.46521 6.25188
1794 1 20.6621 7.69768 7.05422
1884 1 22.1128 7.47727 5.7694
1889 1 21.9272 8.47656 5.78487
1875 1 21.7594 8.36431 6.88948
1886 1 22.7363 8.03346 6.28992
2195 1 23.5733 8.56985 6.78608
1786 1 23.5596 7.64033 5.83284
1785 1 23.2948 7.21553 6.69963
2201 1 24.4437 8.0864 6.06144
2207 1 25.4898 7.73852 6.13805
2141 1 25.0724 8.08469 7.0411
2302 1 26.8587 8.02888 6.15514
2301 1 26.4111 8.28432 6.93466
2440 1 28.5167 8.35489 5.9731
2455 1 27.2733 7.21067 6.6911
217 1 29.191 7.79203 6.57547
2525 1 1.35018 8.71548 6.74242
2312 1 0.977145 9.96907 6.84727
2516 1 0.362517 9.0092 6.84504
315 1 1.83045 9.6152 6.06988
316 1 2.04783 9.65826 6.97722
296 1 2.80712 8.86403 6.9037
50 1 3.11378 9.35396 5.9933
388 1 3.37053 9.8647 6.97299
355 1 4.94418 9.20643 5.95603
623 1 4.88771 8.94644 6.95658
356 1 5.22795 9.99264 6.45499
624 1 5.74812 8.70318 6.68186
945 1 6.18635 9.72428 6.69979
946 1 6.7345 8.99417 6.31036
617 1 7.61927 9.72904 6.30266
838 1 9.03369 8.72651 6.83045
923 1 9.54922 9.18366 5.84898
697 1 8.7854 9.98198 6.82671
837 1 9.99549 8.92434 6.76794
1012 1 11.3311 9.80891 6.57901
669 1 10.5243 9.74133 5.73603
670 1 10.8414 8.86158 6.08606
1241 1 12.3685 8.6116 5.99558
1568 1 12.3837 9.64839 6.6743
1487 1 13.3864 9.80956 6.98939
1488 1 13.3457 9.70595 6.02122
1258 1 15.3009 9.04967 7.04753
1257 1 14.3795 9.03309 6.80507
1324 1 15.7079 9.97061 6.47774
1493 1 16.9425 9.09411 6.43661
1336 1 15.955 8.7462 6.25978
1581 1 17.5377 9.75271 6.92736
1582 1 18.0009 9.83948 6.05306
1819 1 19.8323 9.3355 6.38101
1815 1 18.8585 9.10121 5.99936
1891 1 18.8971 9.22302 7.0521
1820 1 20.6216 8.82027 6.58616
1644 1 21.915 9.37993 6.22122
2196 1 22.8416 9.06034 6.42911
1921 1 24.0365 9.96103 7.02098
2209 1 22.8638 9.92872 6.94511
1953 1 23.4564 9.87617 6.11944
1984 1 25.4361 9.97396 6.26341
2208 1 25.3511 8.72332 6.16045
2125 1 25.2535 9.18604 7.10688
2126 1 24.5102 9.10858 6.53469
2532 1 26.4669 9.92669 6.21894
2216 1 26.8729 9.3941 7.06589
2297 1 28.5279 9.66011 6.1048
2521 1 27.4776 9.65925 6.14455
2522 1 27.7731 8.93976 6.6707
2298 1 28.4016 9.83313 7.03436
2294 1 29.5369 9.57994 5.79578
2515 1 29.4566 8.78681 6.85352
66 1 1.2872 1.02815 8.53151
2305 1 0.301169 0.866738 8.44389
2311 1 1.45319 0.726571 7.27266
74 1 2.23924 0.79488 8.01912
1 1 3.02181 1.32938 7.21487
2 1 3.49599 0.679317 7.79227
453 1 5.6833 1.26092 8.25126
605 1 4.73809 0.809716 7.80845
371 1 5.44314 0.129504 7.55953
372 1 6.21282 0.647115 7.39013
390 1 6.75891 0.475007 8.3302
621 1 8.11893 0.56798 7.4798
704 1 8.40835 0.766212 8.48653
699 1 9.42505 0.152654 7.95596
679 1 9.11912 1.30742 7.51086
1018 1 10.0978 1.04224 7.3829
696 1 10.0606 0.888585 8.54962
933 1 10.8028 0.232054 8.30577
1011 1 11.8305 0.365296 7.16919
1261 1 11.542 0.869803 7.90338
1087 1 12.4436 1.32473 7.40473
1591 1 13.0077 0.393857 7.83774
1337 1 14.0708 0.0428059 8.54465
1009 1 15.4441 0.23844 7.56228
1023 1 14.4442 0.942285 7.74761
1010 1 16.1429 0.91656 7.50813
1349 1 17.8336 0.555021 7.69889
1899 1 19.7045 0.622009 7.55815
1656 1 20.4872 1.34316 7.34511
2220 1 21.354 0.960062 8.07755
1652 1 20.2541 0.705912 8.42365
1694 1 22.3549 1.21003 8.52841
2219 1 22.1314 0.439927 7.80061
2218 1 23.1132 0.737733 7.58242
2217 1 23.5933 0.0215943 7.93991
1993 1 24.2924 0.866546 8.04376
1994 1 25.0339 0.227009 8.10091
1990 1 25.849 0.875198 7.99493
1977 1 26.7091 1.23409 7.23292
1924 1 26.7098 1.00774 8.47199
2530 1 27.9541 0.61422 7.97861
2529 1 27.6074 1.41599 8.33453
1997 1 29.1507 0.909754 8.21789
2378 1 0.887351 1.57148 7.67527
2399 1 0.0753697 2.37002 7.2697
81 1 1.02294 2.65373 7.89432
82 1 0.476757 2.22638 8.52371
75 1 2.73294 2.17468 8.40554
144 1 1.88943 2.59038 7.26639
76 1 1.84651 1.81659 8.20637
68 1 4.01969 1.48016 7.30876
307 1 3.41457 2.37297 7.41957
79 1 3.96174 1.47857 8.43477
366 1 4.9736 1.82105 7.37325
450 1 5.4964 2.78646 7.22665
308 1 4.31932 2.46473 7.71174
707 1 6.68697 1.77732 7.97732
708 1 6.05253 1.9127 7.33239
452 1 6.03267 2.49795 8.15393
702 1 7.93742 2.50668 7.69503
703 1 8.43884 1.71256 8.27077
767 1 7.19138 2.40027 8.54217
676 1 9.2486 2.41578 7.2551
680 1 9.43371 1.87496 8.16923
1116 1 8.82716 2.83466 8.4557
1017 1 10.9494 1.58027 7.41745
1092 1 11.0517 2.78038 8.02174
1268 1 11.3489 1.80925 8.48661
1006 1 10.0381 2.65175 8.46987
1263 1 12.0921 2.28586 7.75006
1088 1 12.3165 1.43401 8.3637
1022 1 13.5874 1.48566 7.47624
1024 1 14.0304 1.45075 8.45763
1264 1 13.0069 2.30815 8.04982
1016 1 13.9048 2.83611 7.68066
1015 1 14.4666 2.03371 7.76986
1028 1 15.4933 1.8764 7.46974
962 1 15.0476 2.73031 8.2752
1027 1 15.2621 1.60172 8.40391
1365 1 16.5107 2.24387 7.28874
1345 1 16.3031 2.01782 8.24231
1346 1 16.958 1.51089 7.85289
1667 1 18.1273 1.64254 7.72304
1428 1 17.4022 2.84316 7.75074
1325 1 18.7006 2.53551 7.43067
1906 1 19.9023 1.92688 8.2022
1668 1 18.8915 1.4879 7.33905
1905 1 19.6473 2.09704 7.25301
1747 1 20.4138 2.78778 7.58944
1700 1 21.0547 1.94664 8.09416
1979 1 22.0563 1.71973 7.62754
1645 1 22.7593 2.46642 7.31739
1996 1 22.4077 2.3523 8.37416
2214 1 24.1562 1.90722 7.57536
2213 1 24.1677 1.98512 8.50874
2056 1 23.1504 1.67982 7.98107
1971 1 25.1662 1.60999 7.49003
1981 1 25.5008 2.44155 8.43817
2075 1 25.2347 2.7685 7.49132
1968 1 26.1922 2.2031 7.21486
1923 1 26.4712 1.84237 8.19343
2380 1 27.0456 2.6618 8.45705
2379 1 27.2831 2.45854 7.5021
1998 1 28.6593 1.82235 8.33888
2309 1 28.9365 2.78372 7.49501
2400 1 29.5688 2.41499 8.08305
72 1 1.35026 4.25608 8.27306
2472 1 0.272318 3.25489 7.90609
160 1 2.06089 2.9572 8.19064
159 1 2.14779 3.66914 7.56937
548 1 3.32715 4.0636 7.48281
524 1 4.10535 3.47511 7.93541
405 1 3.12459 3.56358 8.49185
523 1 4.99599 3.86725 8.09019
463 1 6.07335 3.80469 7.39947
791 1 7.02072 2.95953 7.53273
877 1 7.01857 4.15999 7.42581
378 1 5.98896 3.44546 8.50953
701 1 7.90194 3.41562 7.41231
784 1 9.38167 3.60184 7.5152
774 1 8.69382 3.85085 8.56263
1105 1 10.64 3.79579 7.32417
1095 1 11.5732 3.20242 7.2731
1091 1 11.5221 3.67212 8.17105
1099 1 13.1087 3.39526 7.70436
1512 1 14.1478 3.97394 7.9349
1511 1 14.8689 3.468 7.57873
1378 1 15.4703 3.96236 8.55813
1436 1 16.5206 3.16122 8.04995
1417 1 15.927 3.84815 7.44296
1518 1 17.4756 3.87932 8.29014
1517 1 18.3129 3.77219 7.92778
1748 1 19.6007 3.23072 7.82036
1669 1 19.0545 3.94499 7.29261
1284 1 19.7519 4.1527 8.53863
1682 1 21.0268 3.89374 7.72652
1681 1 20.6682 3.32772 8.43082
1985 1 21.5926 2.87624 7.55381
1755 1 22.4434 4.17981 7.67615
2059 1 21.8573 3.54862 8.29005
2060 1 22.7952 3.49026 8.55497
2071 1 23.9826 3.34669 8.29482
2093 1 23.4425 4.2488 8.18217
2072 1 24.4235 4.15951 7.92778
2057 1 25.6959 4.15897 7.86513
2076 1 26.139 3.21716 7.72346
2058 1 26.6054 4.16791 8.06581
2061 1 27.5225 3.4677 7.55646
2393 1 28.0944 2.8803 8.29221
2471 1 29.628 3.36093 7.14772
145 1 28.5892 3.77063 7.95949
2324 1 29.6475 4.27628 7.74873
2323 1 0.308136 4.89033 7.93159
140 1 1.03337 5.56914 8.26501
147 1 2.59393 4.94892 7.62324
148 1 1.7386 4.6015 7.35423
136 1 2.10747 5.15897 8.48107
153 1 4.20329 4.54615 7.69964
154 1 3.73303 5.33217 7.44506
533 1 4.9819 5.28359 7.45467
528 1 5.12951 5.23274 8.51658
527 1 5.86491 4.84172 8.08008
878 1 6.91981 4.42009 8.39895
850 1 6.64094 5.3954 7.5567
773 1 8.47325 4.29188 7.76145
444 1 7.63466 5.10008 7.73317
766 1 8.77203 5.38742 7.76703
848 1 9.60352 4.57578 7.77521
847 1 10.0516 5.3581 7.32138
1106 1 10.8821 4.6523 7.59703
787 1 10.9268 5.58779 8.15087
1108 1 12.1669 5.68344 7.3381
1107 1 12.187 5.07636 8.11339
1100 1 12.8035 4.31133 7.53427
1176 1 13.2041 5.31605 7.79653
1020 1 13.1853 4.52866 8.53977
1117 1 14.4306 5.64885 7.96117
1118 1 14.8477 4.74201 8.05685
1426 1 15.8224 4.77571 7.87839
1425 1 16.7162 4.45802 7.58118
1502 1 16.4152 5.55766 7.33733
1042 1 15.8437 5.68616 8.24411
1361 1 17.0621 5.26757 8.26945
1424 1 17.8743 4.31338 7.24008
1439 1 18.1766 4.91269 8.04156
1406 1 18.5466 5.69462 7.32783
1440 1 19.0875 4.80826 8.0874
1685 1 19.865 5.32601 7.48008
1687 1 20.0423 4.29897 7.53017
1746 1 20.8338 4.76822 7.15636
1745 1 20.7544 4.83534 8.08512
1749 1 21.6721 5.69192 7.77292
1756 1 21.8068 4.75272 8.07364
1683 1 22.7743 5.29978 7.74147
2136 1 24.4145 5.44752 7.91352
2004 1 25.4816 5.13783 8.19422
2074 1 25.579 5.68558 7.35995
2048 1 26.6568 5.29427 7.91928
2047 1 27.5081 5.49098 7.60347
2062 1 27.675 4.39312 7.5189
2476 1 28.3618 5.60494 8.05351
146 1 28.5033 4.62173 8.32598
2375 1 29.7177 5.57681 7.14903
2376 1 28.8878 5.0651 7.26436
2461 1 0.719658 6.80709 8.09635
2462 1 0.705975 6.31803 7.23443
470 1 2.81071 5.99818 7.26524
139 1 1.69805 5.79145 7.66751
174 1 2.32605 6.23379 8.28492
231 1 2.52189 7.06641 7.63851
232 1 1.61232 6.81159 7.32055
540 1 3.34701 6.29656 7.9965
519 1 4.20974 6.21214 8.51552
286 1 4.57281 6.48137 7.40347
534 1 5.60504 6.01163 7.47877
609 1 5.49525 6.95454 7.75239
535 1 5.90453 6.0687 8.5058
610 1 6.48165 6.74779 7.70302
560 1 7.47971 6.28266 8.11361
525 1 8.20655 6.32235 7.37713
1184 1 9.75126 6.09194 8.2641
1183 1 9.68042 7.09508 8.41072
858 1 9.09681 6.90413 7.38279
932 1 11.2761 7.04687 7.33048
931 1 11.5295 6.48172 8.04531
1187 1 12.569 7.10846 8.49833
1175 1 13.0004 6.24985 7.75916
1193 1 13.4551 7.10482 8.08258
1041 1 15.2948 6.13579 7.5846
939 1 14.3797 6.63736 7.46031
1253 1 15.007 6.62474 8.45969
1509 1 16.4063 6.7608 8.08428
1429 1 17.4628 6.28386 7.56863
1430 1 18.0229 5.97797 8.24651
1851 1 19.1957 5.89086 8.21241
1831 1 18.5911 6.82285 7.84036
1736 1 19.8691 6.4737 7.60973
1750 1 20.8449 5.84362 7.37191
1803 1 21.3712 6.78937 7.24319
2083 1 20.057 6.13212 8.54621
1809 1 20.5574 7.03576 8.09002
1804 1 22.1972 6.60667 7.69757
2135 1 24.0189 6.34526 7.86282
1814 1 23.2284 7.05245 7.81907
2073 1 24.9296 6.31066 7.19598
2152 1 25.089 6.25619 8.50883
2156 1 26.0921 7.13497 8.35942
2456 1 26.542 7.10907 7.18636
2086 1 26.2017 6.19463 8.17896
2154 1 27.9449 6.63817 7.26415
2153 1 27.1723 6.54484 7.82004
2463 1 29.7144 5.81631 8.21854
2475 1 28.7733 6.2669 7.5569
221 1 0.886077 7.74976 7.26576
311 1 0.516854 8.04046 8.15869
161 1 1.55019 7.78162 8.05774
318 1 3.86377 8.08172 7.67013
539 1 3.43163 7.21281 8.36269
317 1 2.95223 8.13678 7.79375
612 1 4.80487 7.58357 7.23957
619 1 4.46713 7.30173 8.25649
298 1 4.84174 8.39334 7.87623
297 1 5.75823 8.04774 7.70119
876 1 6.93413 7.76902 8.04188
614 1 7.76845 8.20762 7.4945
948 1 8.2845 8.22152 8.31058
875 1 7.70475 7.28668 7.77857
929 1 8.69518 7.22405 8.23071
692 1 9.37824 7.8975 7.63861
691 1 10.2127 7.57238 7.68263
942 1 11.273 8.39129 8.18864
869 1 10.8806 7.43371 8.4343
1244 1 12.0292 8.38991 7.22011
870 1 11.7307 7.5311 8.09479
1274 1 12.7834 7.84637 7.69724
1179 1 13.4842 8.54005 7.43788
1165 1 14.9586 8.2378 7.62272
1344 1 15.4032 7.16332 7.54066
1343 1 15.9705 7.99246 7.55346
1584 1 16.6105 8.0517 8.43202
1824 1 17.958 7.56182 7.27442
1510 1 17.2174 7.24906 7.92477
1587 1 17.1572 8.22499 7.29523
1910 1 18.7316 8.2371 7.91225
1832 1 19.3063 7.30182 8.12793
2147 1 21.2986 7.61152 7.82077
1828 1 20.0812 7.99754 8.04409
1880 1 22.4872 7.50982 7.30328
2225 1 22.2703 8.19344 8.28256
1760 1 22.1611 7.14613 8.5702
2150 1 24.0289 7.75111 7.68182
2143 1 23.38 8.50605 8.31976
2142 1 25.4837 7.24082 7.16552
2221 1 24.9478 7.3938 8.17399
2227 1 25.8841 8.50079 7.80414
238 1 27.907 7.78506 7.33202
2299 1 27.3081 8.44145 7.83275
2300 1 28.0227 8.03062 8.3746
237 1 28.7937 7.56171 7.62588
2408 1 29.8209 7.20711 8.45615
312 1 29.8334 7.76813 7.54738
2289 1 0.474391 9.64279 7.96892
2290 1 1.42249 9.88854 7.84462
63 1 2.67223 9.82447 8.01577
2526 1 1.57601 8.71789 7.66656
55 1 3.52631 9.25786 7.91752
387 1 4.31617 9.79806 7.30485
379 1 5.53756 9.15438 7.68246
629 1 4.68141 9.72285 8.38648
380 1 6.42002 9.5932 7.83255
626 1 7.32261 8.91059 8.27187
613 1 7.46009 9.11867 7.17049
687 1 8.42084 9.22015 7.77898
947 1 9.06132 8.6996 8.51803
688 1 9.39979 9.0852 7.6235
1243 1 11.2599 8.99097 7.26537
700 1 10.2102 9.86013 7.55499
941 1 10.47 8.76839 7.83602
1567 1 12.473 9.43316 7.60674
1004 1 11.7118 9.90092 8.23242
1273 1 12.5681 8.59346 8.33424
1180 1 13.3741 9.31463 8.1457
1321 1 14.428 9.7401 7.4976
1594 1 15.0699 9.67465 8.46593
1593 1 15.4622 8.80406 8.43107
1342 1 16.2806 9.00487 7.77282
1341 1 16.4655 9.89213 7.49822
1912 1 17.4872 8.68815 8.16252
1350 1 17.4381 9.70395 7.98583
1911 1 17.9975 8.93405 7.42346
1892 1 18.9617 9.82607 7.79151
1604 1 19.5871 8.87072 7.9041
2148 1 21.0879 8.58468 7.75937
1900 1 20.1921 9.79864 7.61809
2229 1 21.1133 9.79308 8.13414
1876 1 21.786 9.3021 7.27463
2232 1 22.2206 9.36084 8.26322
2231 1 22.8679 9.12461 7.52087
2205 1 24.1527 9.01624 7.82633
2206 1 25.0224 8.96473 8.24557
2215 1 26.8555 9.95416 7.82668
2484 1 25.868 9.68696 8.14581
2487 1 27.8423 9.40712 7.75241
2284 1 29.4516 9.65267 7.51777
2488 1 28.6775 9.52745 8.23336
2524 1 28.6524 8.67664 7.48812
2523 1 29.4681 8.66733 8.01018
3 1 0.567477 0.545 9.77067
65 1 0.941333 0.156715 8.83083
306 1 1.48983 0.955899 9.47972
11 1 2.45411 0.85128 9.60744
64 1 2.16845 0.0658546 8.82319
73 1 2.94048 0.934045 8.74064
639 1 3.47358 0.670846 9.97974
6 1 3.73461 0.105433 8.84282
77 1 4.0882 1.3663 9.46416
606 1 4.66308 0.804912 8.73429
386 1 5.44309 0.923735 9.44162
385 1 5.61759 0.231942 8.87931
712 1 7.14143 1.33916 8.80568
384 1 6.49957 0.886722 9.85892
389 1 7.2009 0.129116 9.09034
926 1 8.16629 0.0568119 9.47786
715 1 8.99829 0.656165 9.3193
1025 1 10.9261 0.942755 9.16875
1038 1 10.343 0.181096 9.83203
1026 1 11.234 0.00477092 9.16979
1262 1 11.8279 0.737253 8.79644
1592 1 13.081 0.725289 8.76534
1355 1 14.0004 0.66935 9.31585
966 1 13.0653 0.159728 9.72496
1030 1 12.9519 1.27869 9.93064
963 1 15.6987 0.563937 9.4797
1338 1 14.8903 0.65886 8.61378
964 1 15.0391 1.20418 9.49698
1577 1 16.0476 0.694328 8.62831
1357 1 16.7568 0.33763 9.48675
1329 1 18.0892 1.04055 8.6766
1330 1 17.2413 0.623907 8.58308
1358 1 17.7133 0.500317 9.63679
1758 1 19.3332 0.58422 9.00752
1618 1 18.7274 1.04592 9.867
1676 1 20.3369 0.687007 9.62641
1651 1 21.0755 0.480098 8.91104
1901 1 22.4924 1.14804 9.64921
2092 1 22.163 0.216417 9.13683
2238 1 23.1967 0.686787 8.58497
1915 1 22.8646 0.0927839 9.91326
2237 1 23.6024 0.809332 9.46023
1991 1 24.5919 0.968754 9.65225
1999 1 25.134 0.202338 9.20848
1989 1 25.3286 1.33685 8.63096
1935 1 26.1543 0.445197 9.7808
2483 1 26.4856 0.0142061 8.77415
2321 1 27.5146 1.04923 9.30814
2481 1 28.4206 0.984521 8.92714
2270 1 28.6008 0.882393 9.92104
2269 1 29.5407 0.950752 9.61611
2306 1 29.7678 0.0989691 8.81096
2482 1 28.7518 0.0794856 9.13507
157 1 1.37059 2.45902 8.99148
305 1 0.649269 1.49483 9.25355
478 1 2.2558 2.75377 9.30555
80 1 3.79189 2.47238 8.62405
395 1 3.01957 1.81126 9.51528
396 1 3.44782 2.66298 9.62846
454 1 5.09126 2.01201 8.61167
465 1 5.13002 1.82106 9.82521
472 1 4.61749 2.50389 9.3545
451 1 5.82807 2.5458 9.10267
383 1 6.21637 1.65812 9.33187
711 1 7.98205 1.4466 9.23532
950 1 7.42255 2.22237 9.76956
768 1 7.94906 2.76873 8.9968
713 1 9.26099 1.90147 9.25849
695 1 10.2639 1.71075 9.17219
1267 1 11.6814 1.66449 9.35826
1036 1 12.0972 2.49006 9.85153
1035 1 11.6005 2.72598 9.03107
1102 1 13.9474 2.40942 8.79771
1101 1 13.144 1.98384 9.0936
1340 1 13.9624 1.72288 9.66631
1044 1 13.0415 2.84974 9.87324
1339 1 14.649 2.34443 9.64775
1363 1 15.6519 2.5449 9.97819
1432 1 16.8529 1.50163 9.16483
1364 1 15.7749 1.93471 9.25754
1302 1 16.5341 2.56008 9.16195
1367 1 17.6036 2.53581 9.79153
1368 1 17.878 1.60193 9.52385
1431 1 17.3566 2.0912 8.58789
1285 1 18.5473 2.2893 8.6902
1757 1 19.2079 1.55443 9.0228
1606 1 19.8211 1.55255 9.73586
1286 1 18.5915 2.55998 9.58898
1610 1 19.5135 2.64503 8.89761
1605 1 20.4311 1.59557 9.00954
1696 1 20.4242 2.61001 9.89255
1699 1 21.0472 2.50347 8.85833
1693 1 21.6064 1.66186 8.96566
1995 1 22.4728 2.73298 9.21256
2055 1 23.2299 1.66747 8.92937
1902 1 22.8604 2.05241 9.82623
2069 1 23.3768 2.63845 8.85132
1992 1 24.0115 1.73723 9.84817
1982 1 24.9049 2.44442 9.14946
2008 1 25.5804 1.47949 9.92626
2080 1 26.7401 1.91404 9.2002
2079 1 25.9224 2.41673 9.49766
2322 1 27.6121 1.79778 9.83138
2390 1 27.6157 2.74248 9.28787
2243 1 28.5683 1.90879 9.56811
2249 1 29.6955 1.71415 8.81595
2250 1 29.745 2.52858 9.30561
158 1 0.795438 3.01572 9.6349
90 1 0.816514 3.55442 8.70887
132 1 0.030912 3.98154 9.03565
89 1 1.61825 3.54261 9.22231
416 1 2.5961 3.71547 9.5026
545 1 3.92723 3.55463 9.30408
471 1 4.99386 3.0735 8.65819
546 1 4.61145 4.11549 9.01053
543 1 5.35387 3.51978 9.54046
377 1 6.32229 4.03554 9.21603
468 1 6.60336 3.09932 9.61721
531 1 7.65196 3.77221 8.71727
786 1 7.43946 3.66331 9.94971
798 1 8.49471 3.48435 9.86881
1115 1 9.30915 3.31155 9.1304
1005 1 10.2633 2.9498 9.40754
1110 1 10.485 3.721 8.72905
855 1 10.5917 4.06243 9.69848
1058 1 12.0992 3.51388 9.6911
1019 1 12.4741 3.88252 8.63258
1047 1 13.0149 4.02329 9.59799
1031 1 14.0637 4.15767 9.00343
1032 1 13.5501 3.41495 8.69695
1051 1 14.0437 3.36771 9.85335
1437 1 15.1637 3.77212 9.8059
961 1 14.7193 3.28346 8.96917
1377 1 15.7813 3.20767 9.12352
1835 1 16.3039 4.09278 9.56981
1435 1 16.5364 4.02485 8.57339
1295 1 17.7673 3.67986 9.75476
1301 1 17.2757 3.11055 9.0592
1296 1 18.6924 3.55757 9.92322
1294 1 19.6863 3.52047 9.4767
1609 1 18.8062 3.32354 8.81087
1695 1 20.7529 3.58125 9.84553
2067 1 21.6679 4.12989 9.98552
2068 1 21.7055 3.57575 9.29504
1940 1 22.6433 3.68064 9.60994
2070 1 23.6692 2.94887 9.6579
2088 1 23.7132 4.0343 9.52587
2077 1 25.1926 3.44732 8.57842
2012 1 24.6703 3.6789 9.68547
2387 1 25.6997 3.72636 9.43943
2388 1 26.2113 3.50911 8.71079
2389 1 26.8275 3.25596 9.61521
2394 1 28.1245 3.69238 8.85765
131 1 29.2499 3.58857 8.87308
71 1 1.101 4.72324 9.05655
2464 1 0.181261 5.60985 9.0963
83 1 1.30232 5.42359 9.87773
2396 1 1.88995 4.67023 9.71303
226 1 2.80286 5.27529 9.60464
406 1 2.96355 4.48383 8.69619
135 1 2.96071 5.54574 8.59204
485 1 3.40748 4.38994 9.78078
551 1 4.00176 5.1724 9.26964
530 1 5.43783 4.6447 9.50299
529 1 6.15127 5.20611 9.29611
785 1 7.55847 4.4761 9.59025
532 1 7.91495 4.70359 8.62423
790 1 8.44371 5.453 9.09841
776 1 9.67253 4.2982 8.96458
795 1 8.69168 4.34737 9.47924
789 1 9.40421 5.42653 9.37027
775 1 9.92606 5.1839 8.58189
856 1 10.5518 5.01754 9.47953
1109 1 11.1003 4.51253 8.68848
1129 1 11.5498 4.68443 9.72377
1199 1 12.3296 5.53343 9.88289
788 1 11.5882 5.64624 8.87818
1130 1 12.3084 4.9057 9.20205
1111 1 13.5429 5.43297 9.01256
1112 1 13.717 4.90793 9.78047
1446 1 15.6138 5.38571 9.77454
1445 1 15.3043 4.71036 9.19759
1362 1 16.5098 5.07004 9.05562
1520 1 17.5684 5.31046 9.33506
1836 1 17.1991 4.33299 9.27572
1433 1 18.2323 4.75668 9.89853
1434 1 18.1779 4.34824 9.0174
1845 1 19.9884 5.49958 9.65868
1283 1 19.1058 4.53991 9.22212
1379 1 18.7309 5.66114 9.50155
1763 1 21.1356 5.36741 9.89878
1370 1 20.0286 5.06846 8.72145
1369 1 20.5318 4.46181 9.27905
1939 1 22.4288 4.36279 8.9922
1834 1 22.1345 5.05526 9.77339
1833 1 21.5219 4.79535 9.04099
2145 1 22.6285 5.44987 8.88848
2094 1 23.8711 4.79368 8.70407
1761 1 23.2311 4.7986 9.96373
2146 1 23.4728 5.67439 9.16989
2087 1 24.2815 4.79172 9.67093
2078 1 24.9396 4.32817 8.92979
2001 1 25.557 4.66096 9.81484
2151 1 24.7269 5.40789 8.9499
2329 1 26.822 4.66557 9.45864
2003 1 26.0172 4.61073 8.80679
2330 1 27.8 4.44547 9.522
2467 1 27.5759 5.11853 8.7212
2468 1 28.2558 5.47796 9.26067
86 1 29.3895 5.03606 9.65787
85 1 29.5304 4.89502 8.65402
2404 1 0.834358 6.50307 9.63014
230 1 1.83083 6.97412 9.33536
173 1 1.81451 5.93959 9.12326
225 1 2.60303 6.25667 9.71182
552 1 3.59625 6.03349 9.49215
520 1 4.07064 6.91901 9.14915
632 1 3.37661 7.05554 9.85455
536 1 5.17949 6.6025 8.8957
627 1 5.16057 5.76494 9.65486
954 1 6.16697 7.06834 8.73373
871 1 6.82096 6.22999 9.5316
872 1 5.89006 6.46989 9.65678
538 1 7.77899 6.69705 9.57691
930 1 8.3985 6.42479 8.63419
474 1 7.78133 5.72556 9.92116
559 1 7.44978 5.74954 8.891
554 1 9.1738 6.53508 9.47822
842 1 10.7066 6.2952 8.87191
841 1 10.2941 5.99973 9.73383
1276 1 10.2785 7.05159 9.42189
866 1 11.8398 6.59089 9.2067
865 1 12.6075 6.12049 8.74766
1196 1 13.3512 5.85737 9.98553
1194 1 13.6401 6.46895 8.76497
1530 1 14.1175 7.03298 9.67755
1195 1 13.1464 6.73082 9.58039
1596 1 15.3653 7.04092 9.3615
1120 1 14.5718 5.78244 9.05943
1046 1 16.3534 6.82641 9.40173
1045 1 16.7619 6.10277 8.97559
1830 1 17.8868 6.38666 9.38234
1852 1 18.9123 6.49459 8.94474
1846 1 19.9918 6.49443 9.4831
2084 1 20.9885 5.88286 8.59292
1810 1 21.1517 7.04831 8.84872
1817 1 21.8846 5.99363 9.41665
1818 1 22.6722 5.8602 9.95612
1759 1 22.5524 6.86371 9.40827
1813 1 22.9258 6.50256 8.57498
2132 1 24.0903 7.06063 8.59568
2131 1 23.695 6.70929 9.37553
2182 1 24.5633 6.0442 9.98775
2421 1 25.6712 5.78135 9.92476
2157 1 24.5581 7.13214 9.69868
2416 1 26.665 5.93178 9.86384
2155 1 26.2463 6.56744 9.13024
2085 1 27.045 5.97411 8.6421
2406 1 27.018 6.91845 9.96275
2470 1 28.0617 6.4563 8.74497
2469 1 29.0267 6.26591 8.8381
2494 1 28.7586 6.87724 9.63137
2478 1 29.8705 7.10627 9.51544
2477 1 0.668133 7.33469 9.00917
249 1 0.51787 8.20376 9.5138
250 1 1.32194 7.77103 9.78142
162 1 2.08663 8.30713 8.70107
229 1 2.45749 7.30828 8.66288
234 1 2.30209 8.19648 9.87722
310 1 3.11554 8.00578 9.21553
631 1 3.97149 7.78156 9.9208
620 1 4.10444 7.94167 8.93339
541 1 5.04031 7.45029 9.62652
601 1 5.36912 7.8898 8.68559
542 1 4.79676 8.36567 9.53924
953 1 6.26815 8.05252 8.81859
558 1 6.79131 7.45001 9.47779
557 1 7.08598 8.3313 9.18965
397 1 5.84975 8.52092 9.6241
537 1 7.5103 7.17043 8.76001
959 1 8.04334 8.18783 9.45333
960 1 8.50989 7.34255 9.39241
937 1 9.46033 7.7117 9.25441
882 1 11.0116 7.79177 9.39048
881 1 10.3372 8.15523 8.84989
1033 1 12.2604 7.5911 9.62991
1034 1 12.6169 8.46157 9.67467
1188 1 13.2293 7.67915 8.93841
1516 1 14.1078 8.08421 9.43279
1595 1 15.6375 7.4789 8.61918
1254 1 14.4984 7.41557 8.72297
1586 1 15.2972 8.13199 9.32246
1597 1 16.6012 7.86476 9.55326
1503 1 17.5861 7.60485 9.41426
1909 1 18.4808 7.68424 8.59769
1504 1 17.6198 8.54861 9.40961
1514 1 19.1787 7.29816 9.581
1908 1 18.6537 8.25037 9.66702
1822 1 19.5018 7.97218 8.89256
1821 1 20.3479 7.58054 9.28457
1842 1 21.8908 7.46671 9.9152
2226 1 21.6153 8.31899 8.99837
2239 1 22.8765 7.89669 9.87978
2144 1 23.0468 7.73043 8.82497
2081 1 23.786 8.26488 9.48112
2222 1 24.5714 8.18846 8.688
2158 1 25.3645 7.46741 9.19484
2492 1 26.923 8.18826 8.75685
2405 1 26.4994 7.51724 9.36354
2228 1 25.9228 8.33167 8.71074
2490 1 26.0082 8.56162 9.96793
320 1 27.769 7.4344 9.50157
2485 1 28.7144 7.24217 8.58663
2486 1 28.8131 7.86277 9.28806
2407 1 29.7047 8.07029 8.81476
2480 1 0.264832 8.89106 8.77151
314 1 1.53831 9.85486 9.70104
313 1 1.46765 9.05271 9.20801
233 1 2.4818 9.10967 9.73036
56 1 2.99806 9.09746 8.72065
392 1 4.1808 9.66287 9.74796
5 1 3.05968 9.95124 9.4968
309 1 3.64466 8.70922 9.51477
602 1 5.56608 8.87311 8.64036
630 1 4.32744 8.9341 8.77518
327 1 5.15803 9.4498 9.54686
328 1 6.08588 9.63098 9.71207
561 1 6.5587 9.14449 8.83402
562 1 6.96757 9.2002 9.66635
625 1 7.77824 9.21564 9.01541
925 1 8.68849 9.73009 8.75994
716 1 9.40469 9.9027 9.43647
938 1 9.60186 8.68616 9.41449
893 1 8.64669 9.086 9.6043
934 1 10.342 9.57689 8.81005
1037 1 10.2267 9.27887 9.97327
1003 1 12.5733 9.82326 8.65941
1272 1 11.6283 9.04637 9.06312
1590 1 13.5879 8.97547 9.15112
1515 1 14.4927 8.83952 8.92753
1351 1 14.7801 9.78734 9.48902
1352 1 15.548 9.28085 9.55049
1523 1 16.6721 9.22258 9.81395
1583 1 16.4246 8.85514 8.95622
1578 1 16.525 9.86309 8.66278
1546 1 18.4079 9.57629 9.68307
1674 1 18.3196 9.99064 8.69421
1907 1 18.5296 8.70465 8.80194
1673 1 17.5428 9.55596 9.03035
1602 1 19.5937 8.85742 9.4262
1601 1 19.1622 9.4882 8.84864
1827 1 20.3953 8.653 8.62688
2230 1 21.3096 9.28733 8.97676
1680 1 20.7312 9.78635 9.75776
1679 1 20.2557 9.67799 8.93135
2091 1 21.7906 9.69783 9.82479
1929 1 23.8545 9.60537 9.76514
2082 1 22.9965 8.83598 9.57113
2212 1 23.2872 9.75818 8.95112
2211 1 24.2458 9.48212 8.78116
2000 1 25.6255 9.43304 9.26883
1928 1 26.5958 9.26317 9.57407
2491 1 26.9328 9.09997 8.57987
2320 1 27.5005 9.96239 9.70001
244 1 27.7023 9.99137 8.70326
243 1 27.9045 9.10644 8.90389
2479 1 29.3994 9.08945 8.90108
2418 1 29.1345 8.92402 9.92692
247 1 29.766 9.7111 9.79544
