LAMMPS data file - Dimer fluid system

2532 atoms
1266 bonds
1 atom types
1 bond types

0.0 30.0 xlo xhi
0.0 10.0 ylo yhi
0.0 10.0 zlo zhi

Masses

1 1.0

Atoms # molecular

1 1 1 2.357847 1.270115 0.084020 0 0 0
2 1 1 1.392153 1.229885 0.165980 0 0 0
3 2 1 2.247848 1.146634 0.667447 0 0 0
4 2 1 1.502152 1.353366 0.082553 0 0 0
5 3 1 1.948248 1.552214 0.997191 0 0 0
6 3 1 1.801752 0.947786 0.252809 0 0 0
7 4 1 2.019462 1.711011 0.832282 0 0 0
8 4 1 1.730538 0.788989 0.917718 0 0 0
9 5 1 2.285005 0.994421 1.167429 0 0 0
10 5 1 1.464995 1.505579 1.082571 0 0 0
11 6 1 1.616653 1.650925 1.287017 0 0 0
12 6 1 2.133347 0.849075 1.462983 0 0 0
13 7 1 1.410559 1.197668 1.495460 0 0 0
14 7 1 2.339441 1.302332 1.754540 0 0 0
15 8 1 1.731850 1.450304 2.292865 0 0 0
16 8 1 2.018150 1.049696 1.457135 0 0 0
17 9 1 2.349256 1.229707 2.025527 0 0 0
18 9 1 1.400744 1.270293 2.224473 0 0 0
19 10 1 1.458437 1.324874 2.611841 0 0 0
20 10 1 2.291563 1.175126 2.138159 0 0 0
21 11 1 2.089542 1.526054 2.288859 0 0 0
22 11 1 1.660458 0.973946 2.961141 0 0 0
23 12 1 1.719751 1.602597 2.580385 0 0 0
24 12 1 2.030249 0.897403 3.169615 0 0 0
25 13 1 1.710892 1.123904 3.563627 0 0 0
26 13 1 2.039108 1.376096 2.686373 0 0 0
27 14 1 2.056802 1.598500 3.659114 0 0 0
28 14 1 1.693198 0.901500 3.090886 0 0 0
29 15 1 1.718339 1.138254 3.179809 0 0 0
30 15 1 2.031661 1.361746 4.070191 0 0 0
31 16 1 2.115113 0.865279 4.046932 0 0 0
32 16 1 1.634887 1.634721 3.703068 0 0 0
33 17 1 2.260830 1.184201 3.838590 0 0 0
34 17 1 1.489170 1.315799 4.411410 0 0 0
35 18 1 1.985457 1.208183 4.845399 0 0 0
36 18 1 1.764543 1.291817 3.904601 0 0 0
37 19 1 1.619284 1.612678 4.429298 0 0 0
38 19 1 2.130716 0.887322 4.820702 0 0 0
39 20 1 1.857688 1.542582 5.261421 0 0 0
40 20 1 1.892312 0.957418 4.488579 0 0 0
41 21 1 2.029000 0.850742 4.896742 0 0 0
42 21 1 1.721000 1.649258 5.353258 0 0 0
43 22 1 1.495252 0.983627 5.516639 0 0 0
44 22 1 2.254748 1.516373 5.233361 0 0 0
45 23 1 2.107158 1.197441 5.202430 0 0 0
46 23 1 1.642842 1.302559 6.047570 0 0 0
47 24 1 1.539765 0.899512 5.874492 0 0 0
48 24 1 2.210235 1.600488 5.875508 0 0 0
49 25 1 1.992141 1.439554 6.555781 0 0 0
50 25 1 1.757859 1.060446 5.694219 0 0 0
51 26 1 2.175778 1.257817 5.994610 0 0 0
52 26 1 1.574222 1.242183 6.755390 0 0 0
53 27 1 2.020957 0.998586 6.236783 0 0 0
54 27 1 1.729043 1.501414 7.013217 0 0 0
55 28 1 2.281893 1.511801 6.908510 0 0 0
56 28 1 1.468107 0.988199 6.841490 0 0 0
57 29 1 2.190356 1.266892 6.756910 0 0 0
58 29 1 1.559644 1.233108 7.493090 0 0 0
59 30 1 2.058901 1.176411 7.817708 0 0 0
60 30 1 1.691099 1.323589 6.932292 0 0 0
61 31 1 2.014495 1.209420 8.087730 0 0 0
62 31 1 1.735505 1.290580 7.162270 0 0 0
63 32 1 2.099743 1.616260 8.099876 0 0 0
64 32 1 1.650257 0.883740 7.650124 0 0 0
65 33 1 1.864265 0.913659 8.474262 0 0 0
66 33 1 1.885735 1.586341 7.775738 0 0 0
67 34 1 2.270317 1.360211 8.116537 0 0 0
68 34 1 1.479683 1.139789 8.633463 0 0 0
69 35 1 1.398297 1.206599 8.546929 0 0 0
70 35 1 2.351703 1.293401 8.703071 0 0 0
71 36 1 1.754467 1.021640 9.285547 0 0 0
72 36 1 1.995533 1.478360 8.464453 0 0 0
73 37 1 2.310168 1.299953 8.916772 0 0 0
74 37 1 1.439832 1.200047 9.333228 0 0 0
75 38 1 1.818123 1.551930 9.750271 0 0 0
76 38 1 1.931877 0.948070 8.999729 0 0 0
77 39 1 1.726937 1.307934 10.083199 0 0 0
78 39 1 2.023063 1.192066 9.166801 0 0 0
79 40 1 1.954467 1.669817 9.645515 0 0 0
80 40 1 1.795533 0.830183 10.104485 0 0 0
81 41 1 2.289676 3.580313 -0.060675 0 0 0
82 41 1 1.460324 3.919687 0.310675 0 0 0
83 42 1 1.497333 3.450439 0.321566 0 0 0
84 42 1 2.252667 4.049561 0.428434 0 0 0
85 43 1 1.969178 3.718263 0.150291 0 0 0
86 43 1 1.780822 3.781737 1.099709 0 0 0
87 44 1 2.103701 3.776118 1.301894 0 0 0
88 44 1 1.646299 3.723882 0.448106 0 0 0
89 45 1 1.582399 3.403510 0.953087 0 0 0
90 45 1 2.167601 4.096490 1.296913 0 0 0
91 46 1 2.316430 3.711756 1.177763 0 0 0
92 46 1 1.433570 3.788244 1.572237 0 0 0
93 47 1 1.682286 3.483178 1.268781 0 0 0
94 47 1 2.067714 4.016822 1.981219 0 0 0
95 48 1 1.933537 3.449842 2.251435 0 0 0
96 48 1 1.816463 4.050158 1.498565 0 0 0
97 49 1 2.112429 3.703310 1.704676 0 0 0
98 49 1 1.637571 3.796690 2.545324 0 0 0
99 50 1 2.168141 3.532846 2.694589 0 0 0
100 50 1 1.581859 3.967154 2.055411 0 0 0
101 51 1 1.869506 3.313052 2.835407 0 0 0
102 51 1 1.880494 4.186948 2.414593 0 0 0
103 52 1 2.281714 3.533743 2.723207 0 0 0
104 52 1 1.468286 3.966257 3.026793 0 0 0
105 53 1 2.348201 3.770144 3.229402 0 0 0
106 53 1 1.401799 3.729856 3.020598 0 0 0
107 54 1 2.189819 4.055221 3.582253 0 0 0
108 54 1 1.560181 3.444779 3.167747 0 0 0
109 55 1 2.309926 3.539681 3.582221 0 0 0
110 55 1 1.440074 3.960319 3.667779 0 0 0
111 56 1 1.577801 3.983198 4.179165 0 0 0
112 56 1 2.172199 3.516802 3.570835 0 0 0
113 57 1 1.466231 3.526296 3.990502 0 0 0
114 57 1 2.283769 3.973704 4.259498 0 0 0
115 58 1 2.019808 3.968403 4.783112 0 0 0
116 58 1 1.730192 3.531597 3.966888 0 0 0
117 59 1 1.767572 3.407268 4.299088 0 0 0
118 59 1 1.982428 4.092732 4.950912 0 0 0
119 60 1 1.779439 3.795481 4.401688 0 0 0
120 60 1 1.970561 3.704519 5.348312 0 0 0
121 61 1 2.149047 3.387173 4.956240 0 0 0
122 61 1 1.600953 4.112827 5.293760 0 0 0
123 62 1 2.258697 3.949311 5.594720 0 0 0
124 62 1 1.491303 3.550689 5.155280 0 0 0
125 63 1 1.715286 3.416077 5.311612 0 0 0
126 63 1 2.034714 4.083923 5.938388 0 0 0
127 64 1 2.049018 4.161914 6.062802 0 0 0
128 64 1 1.700982 3.338086 5.687198 0 0 0
129 65 1 1.897873 4.025469 5.726479 0 0 0
130 65 1 1.852127 3.474531 6.523521 0 0 0
131 66 1 2.307748 3.895408 6.211259 0 0 0
132 66 1 1.442252 3.604592 6.538741 0 0 0
133 67 1 2.105060 3.974167 6.988382 0 0 0
134 67 1 1.644940 3.525833 6.261618 0 0 0
135 68 1 1.430914 3.858721 6.713159 0 0 0
136 68 1 2.319086 3.641279 7.036841 0 0 0
137 69 1 2.106726 3.817540 7.545674 0 0 0
138 69 1 1.643274 3.682460 6.704326 0 0 0
139 70 1 1.710577 4.143925 7.605246 0 0 0
140 70 1 2.039423 3.356075 7.144754 0 0 0
141 71 1 1.801695 3.507027 7.211701 0 0 0
142 71 1 1.948305 3.992973 8.038299 0 0 0
143 72 1 1.449510 3.898718 8.054071 0 0 0
144 72 1 2.300490 3.601282 7.695929 0 0 0
145 73 1 1.542031 3.416348 8.010837 0 0 0
146 73 1 2.207969 4.083652 8.239163 0 0 0
147 74 1 2.205525 3.971571 8.097720 0 0 0
148 74 1 1.544475 3.528429 8.652280 0 0 0
149 75 1 1.966586 3.310088 8.807522 0 0 0
150 75 1 1.783414 4.189912 8.442478 0 0 0
151 76 1 1.472069 3.683617 9.136658 0 0 0
152 76 1 2.277931 3.816383 8.613342 0 0 0
153 77 1 2.137992 3.666691 8.726102 0 0 0
154 77 1 1.612008 3.833309 9.523898 0 0 0
155 78 1 1.424531 3.828041 9.536902 0 0 0
156 78 1 2.325469 3.671959 9.213098 0 0 0
157 79 1 2.069564 3.617206 10.048952 0 0 0
158 79 1 1.680436 3.882794 9.201048 0 0 0
159 80 1 1.540686 3.646830 9.539120 0 0 0
160 80 1 2.209314 3.853170 10.210880 0 0 0
161 81 1 1.814287 6.640716 0.405855 0 0 0
162 81 1 1.935713 5.859284 -0.155855 0 0 0
163 82 1 1.728927 5.798346 0.275520 0 0 0
164 82 1 2.021073 6.701654 0.474480 0 0 0
165 83 1 1.719166 6.514341 1.000586 0 0 0
166 83 1 2.030834 5.985659 0.249414 0 0 0
167 84 1 1.851262 6.051947 1.317082 0 0 0
168 84 1 1.898738 6.448053 0.432918 0 0 0
169 85 1 1.627102 5.926004 1.387293 0 0 0
170 85 1 2.122898 6.573996 0.862707 0 0 0
171 86 1 1.550059 6.573981 1.217918 0 0 0
172 86 1 2.199941 5.926019 1.532082 0 0 0
173 87 1 1.729557 6.678406 1.799757 0 0 0
174 87 1 2.020443 5.821594 1.450243 0 0 0
175 88 1 1.775988 6.724270 1.897120 0 0 0
176 88 1 1.974012 5.775730 1.852880 0 0 0
177 89 1 1.772963 6.171486 1.657401 0 0 0
178 89 1 1.977037 6.328514 2.592599 0 0 0
179 90 1 1.827848 6.153981 1.901944 0 0 0
180 90 1 1.922152 6.346019 2.848056 0 0 0
181 91 1 2.203337 6.356866 2.284413 0 0 0
182 91 1 1.546663 6.143134 2.965587 0 0 0
183 92 1 1.675712 6.534319 3.213633 0 0 0
184 92 1 2.074288 5.965681 2.536367 0 0 0
185 93 1 1.446333 6.264169 3.351425 0 0 0
186 93 1 2.303667 6.235831 2.898575 0 0 0
187 94 1 1.619838 6.139319 2.977675 0 0 0
188 94 1 2.130162 6.360681 3.772325 0 0 0
189 95 1 2.184281 6.239405 3.998441 0 0 0
190 95 1 1.565719 6.260595 3.251559 0 0 0
191 96 1 2.267486 5.990344 3.757702 0 0 0
192 96 1 1.482514 6.509656 3.992298 0 0 0
193 97 1 2.331174 6.389780 4.212131 0 0 0
194 97 1 1.418826 6.110220 4.037869 0 0 0
195 98 1 1.739906 6.442269 4.799272 0 0 0
196 98 1 2.010094 6.057731 3.950728 0 0 0
197 99 1 1.835579 6.686548 4.832599 0 0 0
198 99 1 1.914421 5.813452 4.417401 0 0 0
199 100 1 1.598180 6.233953 4.477083 0 0 0
200 100 1 2.151820 6.266047 5.272917 0 0 0
201 101 1 2.074334 6.256935 5.567089 0 0 0
202 101 1 1.675666 6.243065 4.682911 0 0 0
203 102 1 1.411815 6.111308 5.413070 0 0 0
204 102 1 2.338185 6.388692 5.336930 0 0 0
205 103 1 1.478075 6.103387 5.387976 0 0 0
206 103 1 2.271925 6.396613 5.862024 0 0 0
207 104 1 2.276797 6.476788 5.725497 0 0 0
208 104 1 1.473203 6.023212 6.024503 0 0 0
209 105 1 2.341180 6.190249 6.244712 0 0 0
210 105 1 1.408820 6.309751 6.005288 0 0 0
211 106 1 1.814247 6.332412 5.900930 0 0 0
212 106 1 1.935753 6.167588 6.849070 0 0 0
213 107 1 2.187832 6.201598 6.992448 0 0 0
214 107 1 1.562168 6.298402 6.257552 0 0 0
215 108 1 1.922402 5.971253 6.480946 0 0 0
216 108 1 1.827598 6.528747 7.269054 0 0 0
217 109 1 1.849641 6.731832 7.174193 0 0 0
218 109 1 1.900359 5.768168 7.075807 0 0 0
219 110 1 1.714140 6.627201 7.633975 0 0 0
220 110 1 2.035860 5.872799 7.116025 0 0 0
221 111 1 2.295453 6.230176 7.865939 0 0 0
222 111 1 1.454547 6.269824 7.384061 0 0 0
223 112 1 1.875288 6.373263 7.405925 0 0 0
224 112 1 1.874712 6.126737 8.344075 0 0 0
225 113 1 2.359134 6.230749 8.103358 0 0 0
226 113 1 1.390866 6.269251 8.146642 0 0 0
227 114 1 1.630426 6.651991 8.492523 0 0 0
228 114 1 2.119574 5.848009 8.257477 0 0 0
229 115 1 2.006111 6.481365 9.030592 0 0 0
230 115 1 1.743889 6.018635 8.219408 0 0 0
231 116 1 1.782323 6.651563 8.619299 0 0 0
232 116 1 1.967677 5.848437 9.130701 0 0 0
233 117 1 2.080991 6.092874 9.535005 0 0 0
234 117 1 1.669009 6.407126 8.714995 0 0 0
235 118 1 1.874806 5.920626 9.731002 0 0 0
236 118 1 1.875194 6.579374 9.018998 0 0 0
237 119 1 2.197464 6.386102 9.960736 0 0 0
238 119 1 1.552536 6.113898 9.289264 0 0 0
239 120 1 1.426775 6.355849 9.722963 0 0 0
240 120 1 2.323225 6.144151 10.027037 0 0 0
241 121 1 1.575580 8.373836 0.061180 0 0 0
242 121 1 2.174420 9.126164 0.188820 0 0 0
243 122 1 2.096437 8.546826 0.755671 0 0 0
244 122 1 1.653563 8.953174 -0.005671 0 0 0
245 123 1 1.405302 8.788628 0.739529 0 0 0
246 123 1 2.344698 8.711372 0.510471 0 0 0
247 124 1 1.796100 8.562147 1.315126 0 0 0
248 124 1 1.953900 8.937853 0.434874 0 0 0
249 125 1 2.258946 8.988130 1.301364 0 0 0
250 125 1 1.491054 8.511870 0.948636 0 0 0
251 126 1 1.576880 8.374291 1.447057 0 0 0
252 126 1 2.173120 9.125709 1.302943 0 0 0
253 127 1 1.635565 9.165077 1.699881 0 0 0
254 127 1 2.114435 8.334923 1.550119 0 0 0
255 128 1 1.988749 8.722115 2.345647 0 0 0
256 128 1 1.761251 8.777885 1.404353 0 0 0
257 129 1 1.728274 8.836690 1.670928 0 0 0
258 129 1 2.021726 8.663310 2.579072 0 0 0
259 130 1 1.559348 8.407392 2.509940 0 0 0
260 130 1 2.190652 9.092608 2.240060 0 0 0
261 131 1 1.640100 8.758448 3.049235 0 0 0
262 131 1 2.109900 8.741552 2.200765 0 0 0
263 132 1 1.497538 8.528344 3.083844 0 0 0
264 132 1 2.252462 8.971656 2.666156 0 0 0
265 133 1 1.989699 9.198411 3.269901 0 0 0
266 133 1 1.760301 8.301589 2.980099 0 0 0
267 134 1 1.934116 8.635199 2.907505 0 0 0
268 134 1 1.815884 8.864801 3.842495 0 0 0
269 135 1 1.849111 8.509144 3.204830 0 0 0
270 135 1 1.900889 8.990856 4.045170 0 0 0
271 136 1 1.819980 8.777017 3.393889 0 0 0
272 136 1 1.930020 8.722983 4.356111 0 0 0
273 137 1 1.512205 9.068829 4.080814 0 0 0
274 137 1 2.237795 8.431171 4.169186 0 0 0
275 138 1 1.874104 8.434582 4.743423 0 0 0
276 138 1 1.875896 9.065418 4.006577 0 0 0
277 139 1 2.247423 8.439741 4.608720 0 0 0
278 139 1 1.502577 9.060259 4.641280 0 0 0
279 140 1 2.166411 8.681219 4.493459 0 0 0
280 140 1 1.583589 8.818781 5.256541 0 0 0
281 141 1 2.349880 8.663837 5.077143 0 0 0
282 141 1 1.400120 8.836163 5.172857 0 0 0
283 142 1 1.468269 8.764103 5.111189 0 0 0
284 142 1 2.281731 8.735897 5.638811 0 0 0
285 143 1 1.873279 8.979952 6.052018 0 0 0
286 143 1 1.876721 8.520048 5.197982 0 0 0
287 144 1 1.631354 9.093756 5.634805 0 0 0
288 144 1 2.118646 8.406244 6.115195 0 0 0
289 145 1 1.699150 8.791368 6.575100 0 0 0
290 145 1 2.050850 8.708632 5.674900 0 0 0
291 146 1 1.808262 9.088523 6.715842 0 0 0
292 146 1 1.941738 8.411477 6.034158 0 0 0
293 147 1 2.263584 9.023768 6.528674 0 0 0
294 147 1 1.486416 8.476232 6.721326 0 0 0
295 148 1 1.779653 8.654685 7.340885 0 0 0
296 148 1 1.970347 8.845315 6.409115 0 0 0
297 149 1 1.958391 8.419579 7.470098 0 0 0
298 149 1 1.791609 9.080421 6.779902 0 0 0
299 150 1 2.055823 8.342825 7.183332 0 0 0
300 150 1 1.694177 9.157175 7.566668 0 0 0
301 151 1 2.246383 8.626878 7.911602 0 0 0
302 151 1 1.503617 8.873122 7.338398 0 0 0
303 152 1 1.816858 8.275459 7.793422 0 0 0
304 152 1 1.933142 9.224541 7.956578 0 0 0
305 153 1 1.507142 9.047874 8.230720 0 0 0
306 153 1 2.242858 8.452126 8.019280 0 0 0
307 154 1 1.854103 8.772454 8.859029 0 0 0
308 154 1 1.895897 8.727546 7.890971 0 0 0
309 155 1 2.344180 8.701826 8.738025 0 0 0
310 155 1 1.405820 8.798174 8.511975 0 0 0
311 156 1 2.308158 8.754405 8.656871 0 0 0
312 156 1 1.441842 8.745595 9.093129 0 0 0
313 157 1 1.593717 9.089074 8.922186 0 0 0
314 157 1 2.156283 8.410926 9.327814 0 0 0
315 158 1 1.505303 8.879097 9.088848 0 0 0
316 158 1 2.244697 8.620903 9.661152 0 0 0
317 159 1 2.124343 9.038259 9.924933 0 0 0
318 159 1 1.625657 8.461741 9.325067 0 0 0
319 160 1 1.482738 8.715339 9.591885 0 0 0
320 160 1 2.267262 8.784661 10.158115 0 0 0
321 161 1 5.208284 1.445819 0.277405 0 0 0
322 161 1 6.041716 1.054181 -0.027405 0 0 0
323 162 1 5.345739 1.606989 0.202381 0 0 0
324 162 1 5.904261 0.893011 0.547619 0 0 0
325 163 1 5.848797 0.870052 0.423061 0 0 0
326 163 1 5.401203 1.629948 0.826939 0 0 0
327 164 1 5.769442 0.965077 1.239939 0 0 0
328 164 1 5.480558 1.534923 0.510061 0 0 0
329 165 1 5.200672 1.478674 1.071344 0 0 0
330 165 1 6.049328 1.021326 1.178656 0 0 0
331 166 1 5.642901 0.766633 1.339487 0 0 0
332 166 1 5.607099 1.733367 1.410513 0 0 0
333 167 1 5.249434 1.421638 1.370608 0 0 0
334 167 1 6.000566 1.078362 1.879392 0 0 0
335 168 1 5.709739 1.372166 2.336649 0 0 0
336 168 1 5.540261 1.127834 1.413351 0 0 0
337 169 1 6.025442 1.068438 2.329711 0 0 0
338 169 1 5.224558 1.431562 1.920289 0 0 0
339 170 1 5.437342 1.687613 2.282784 0 0 0
340 170 1 5.812658 0.812387 2.467216 0 0 0
341 171 1 5.398866 1.648972 2.467171 0 0 0
342 171 1 5.851134 0.851028 2.782829 0 0 0
343 172 1 5.734040 1.547232 3.242408 0 0 0
344 172 1 5.515960 0.952768 2.507592 0 0 0
345 173 1 5.542396 1.725120 3.073402 0 0 0
346 173 1 5.707604 0.774880 3.176598 0 0 0
347 174 1 5.273136 1.184746 3.702351 0 0 0
348 174 1 5.976864 1.315254 3.047649 0 0 0
349 175 1 5.214394 1.196685 3.372442 0 0 0
350 175 1 6.035606 1.303315 3.877558 0 0 0
351 176 1 5.902913 1.312788 4.267489 0 0 0
352 176 1 5.347087 1.187212 3.482511 0 0 0
353 177 1 5.246933 1.247187 4.428780 0 0 0
354 177 1 6.003067 1.252813 3.821220 0 0 0
355 178 1 5.571967 0.768304 4.355481 0 0 0
356 178 1 5.678033 1.731696 4.394519 0 0 0
357 179 1 5.594444 0.765964 4.625856 0 0 0
358 179 1 5.655556 1.734036 4.624144 0 0 0
359 180 1 5.693343 1.712169 5.005209 0 0 0
360 180 1 5.556657 0.787831 4.744791 0 0 0
361 181 1 5.721037 1.658556 5.368071 0 0 0
362 181 1 5.528963 0.841444 4.881929 0 0 0
363 182 1 5.696488 0.772004 5.334577 0 0 0
364 182 1 5.553512 1.727996 5.415423 0 0 0
365 183 1 5.186834 1.095828 5.485478 0 0 0
366 183 1 6.063166 1.404172 5.764522 0 0 0
367 184 1 6.006305 1.058533 5.644410 0 0 0
368 184 1 5.243695 1.441467 6.105590 0 0 0
369 185 1 5.672523 1.161519 6.599487 0 0 0
370 185 1 5.577477 1.338481 5.650513 0 0 0
371 186 1 5.402666 0.835934 6.255241 0 0 0
372 186 1 5.847334 1.664066 6.494759 0 0 0
373 187 1 5.712815 1.343780 6.157326 0 0 0
374 187 1 5.537185 1.156220 7.092674 0 0 0
375 188 1 5.341434 0.887979 6.720870 0 0 0
376 188 1 5.908566 1.612021 7.029130 0 0 0
377 189 1 6.092077 1.379970 7.138096 0 0 0
378 189 1 5.157923 1.120030 7.111904 0 0 0
379 190 1 5.573394 0.989105 6.969420 0 0 0
380 190 1 5.676606 1.510895 7.780580 0 0 0
381 191 1 5.372635 1.176762 7.217357 0 0 0
382 191 1 5.877365 1.323238 8.032643 0 0 0
383 192 1 5.728793 1.163747 7.409154 0 0 0
384 192 1 5.521207 1.336253 8.340846 0 0 0
385 193 1 5.613012 1.011074 7.703105 0 0 0
386 193 1 5.636988 1.488926 8.546895 0 0 0
387 194 1 5.358322 1.095394 8.000560 0 0 0
388 194 1 5.891678 1.404606 8.749440 0 0 0
389 195 1 5.500502 1.466362 8.209172 0 0 0
390 195 1 5.749498 1.033638 9.040828 0 0 0
391 196 1 5.840804 0.819598 8.816628 0 0 0
392 196 1 5.409196 1.680402 8.933372 0 0 0
393 197 1 5.603091 0.870682 9.426434 0 0 0
394 197 1 5.646909 1.629318 8.823566 0 0 0
395 198 1 5.806510 1.414746 8.956505 0 0 0
396 198 1 5.443490 1.085254 9.793495 0 0 0
397 199 1 5.311538 1.102499 9.964426 0 0 0
398 199 1 5.938462 1.397501 9.285574 0 0 0
399 200 1 5.225887 1.059483 9.675910 0 0 0
400 200 1 6.024113 1.440517 10.074090 0 0 0
401 201 1 5.860480 4.135150 -0.052296 0 0 0
402 201 1 5.389520 3.364850 0.302296 0 0 0
403 202 1 5.255911 3.456527 0.488455 0 0 0
404 202 1 5.994089 4.043473 0.261545 0 0 0
405 203 1 6.082307 3.790903 0.468723 0 0 0
406 203 1 5.167693 3.709097 0.781277 0 0 0
407 204 1 5.942932 3.576428 1.197516 0 0 0
408 204 1 5.307068 3.923572 0.552484 0 0 0
409 205 1 5.375783 3.346906 1.228109 0 0 0
410 205 1 5.874217 4.153094 1.021891 0 0 0
411 206 1 5.970343 3.459855 1.553267 0 0 0
412 206 1 5.279657 4.040145 1.196733 0 0 0
413 207 1 5.516232 3.277362 1.622146 0 0 0
414 207 1 5.733768 4.222638 1.627854 0 0 0
415 208 1 5.205663 3.840225 1.648636 0 0 0
416 208 1 6.044337 3.659775 2.101364 0 0 0
417 209 1 5.458400 3.823273 1.675444 0 0 0
418 209 1 5.791600 3.676727 2.574556 0 0 0
419 210 1 5.938484 4.088339 2.524931 0 0 0
420 210 1 5.311516 3.411661 2.225069 0 0 0
421 211 1 6.072085 3.599535 2.512304 0 0 0
422 211 1 5.177915 3.900465 2.737696 0 0 0
423 212 1 5.932643 3.681346 2.506398 0 0 0
424 212 1 5.317357 3.818654 3.243602 0 0 0
425 213 1 5.354087 3.347981 3.139557 0 0 0
426 213 1 5.895913 4.152019 3.110443 0 0 0
427 214 1 5.439325 3.840851 3.813743 0 0 0
428 214 1 5.810675 3.659149 2.936257 0 0 0
429 215 1 5.183595 3.827931 3.439761 0 0 0
430 215 1 6.066405 3.672069 3.810239 0 0 0
431 216 1 5.737451 4.089975 4.202104 0 0 0
432 216 1 5.512549 3.410025 3.547896 0 0 0
433 217 1 5.676297 3.599838 3.666693 0 0 0
434 217 1 5.573703 3.900162 4.583307 0 0 0
435 218 1 5.406233 4.180696 4.418208 0 0 0
436 218 1 5.843767 3.319304 4.331792 0 0 0
437 219 1 5.355359 4.144531 4.707850 0 0 0
438 219 1 5.894641 3.355469 4.542150 0 0 0
439 220 1 5.920240 3.499532 5.167103 0 0 0
440 220 1 5.329760 4.000468 4.582897 0 0 0
441 221 1 5.532133 3.326289 5.341956 0 0 0
442 221 1 5.717867 4.173711 4.908044 0 0 0
443 222 1 5.278500 3.508737 5.136347 0 0 0
444 222 1 5.971500 3.991263 5.613653 0 0 0
445 223 1 5.628619 3.984708 5.200590 0 0 0
446 223 1 5.621381 3.515292 6.049410 0 0 0
447 224 1 5.213660 3.985424 5.772043 0 0 0
448 224 1 6.036340 3.514576 5.977957 0 0 0
449 225 1 5.478959 3.366309 5.866778 0 0 0
450 225 1 5.771041 4.133691 6.383222 0 0 0
451 226 1 5.726925 3.731367 5.901197 0 0 0
452 226 1 5.523075 3.768633 6.848803 0 0 0
453 227 1 5.230846 3.752143 6.907600 0 0 0
454 227 1 6.019154 3.747857 6.342400 0 0 0
455 228 1 5.310708 4.049265 7.091532 0 0 0
456 228 1 5.939292 3.450735 6.658468 0 0 0
457 229 1 5.736977 4.153400 7.369856 0 0 0
458 229 1 5.513023 3.346600 6.880144 0 0 0
459 230 1 5.211053 3.988458 7.458728 0 0 0
460 230 1 6.038947 3.511542 7.291272 0 0 0
461 231 1 5.809003 4.193316 7.555435 0 0 0
462 231 1 5.440997 3.306684 7.694565 0 0 0
463 232 1 5.458653 4.195452 7.970530 0 0 0
464 232 1 5.791347 3.304548 7.779470 0 0 0
465 233 1 5.557208 3.373356 8.422941 0 0 0
466 233 1 5.692792 4.126644 7.827059 0 0 0
467 234 1 6.075863 3.643584 8.231393 0 0 0
468 234 1 5.174137 3.856416 8.518607 0 0 0
469 235 1 6.052065 3.543130 8.524776 0 0 0
470 235 1 5.197935 3.956870 8.725224 0 0 0
471 236 1 5.420366 3.477597 9.220176 0 0 0
472 236 1 5.829634 4.022403 8.529824 0 0 0
473 237 1 5.838145 3.314370 9.129539 0 0 0
474 237 1 5.411855 4.185630 9.120461 0 0 0
475 238 1 5.832031 4.118240 9.136751 0 0 0
476 238 1 5.417969 3.381760 9.613249 0 0 0
477 239 1 5.811945 3.933902 9.217009 0 0 0
478 239 1 5.438055 3.566098 10.032991 0 0 0
479 240 1 5.141928 3.756393 9.832278 0 0 0
480 240 1 6.108072 3.743607 9.917722 0 0 0
481 241 1 5.316697 6.618758 0.189745 0 0 0
482 241 1 5.933303 5.881242 0.060255 0 0 0
483 242 1 5.788297 6.668882 0.556925 0 0 0
484 242 1 5.461703 5.831118 0.193075 0 0 0
485 243 1 5.580088 6.636712 0.335756 0 0 0
486 243 1 5.669912 5.863288 0.914244 0 0 0
487 244 1 5.155674 6.308669 0.982314 0 0 0
488 244 1 6.094326 6.191331 0.767686 0 0 0
489 245 1 5.567660 6.573392 1.481868 0 0 0
490 245 1 5.682340 5.926608 0.768132 0 0 0
491 246 1 6.008797 5.966716 1.462606 0 0 0
492 246 1 5.241203 6.533284 1.287394 0 0 0
493 247 1 5.267544 6.206520 1.949900 0 0 0
494 247 1 5.982456 6.293480 1.300100 0 0 0
495 248 1 5.381885 6.003790 1.535146 0 0 0
496 248 1 5.868115 6.496210 2.214854 0 0 0
497 249 1 5.231294 6.450051 2.325499 0 0 0
498 249 1 6.018706 6.049949 1.924501 0 0 0
499 250 1 5.765510 6.713974 2.360505 0 0 0
500 250 1 5.484490 5.786026 2.389495 0 0 0
501 251 1 5.945017 5.900756 2.520870 0 0 0
502 251 1 5.304983 6.599244 2.729130 0 0 0
503 252 1 5.631643 5.910931 3.221717 0 0 0
504 252 1 5.618357 6.589069 2.528283 0 0 0
505 253 1 5.172090 6.077878 3.146721 0 0 0
506 253 1 6.077910 6.422122 3.103279 0 0 0
507 254 1 6.096283 6.257643 3.260724 0 0 0
508 254 1 5.153717 6.242357 3.489276 0 0 0
509 255 1 6.101990 6.187480 3.686617 0 0 0
510 255 1 5.148010 6.312520 3.563383 0 0 0
511 256 1 5.756693 5.784788 3.913207 0 0 0
512 256 1 5.493307 6.715212 3.836793 0 0 0
513 257 1 6.046315 6.110149 3.929654 0 0 0
514 257 1 5.203685 6.389851 4.320346 0 0 0
515 258 1 6.073144 6.271954 4.190853 0 0 0
516 258 1 5.176856 6.228046 4.559147 0 0 0
517 259 1 5.228449 6.124243 4.375686 0 0 0
518 259 1 6.021551 6.375757 4.874314 0 0 0
519 260 1 5.695784 5.774047 4.814313 0 0 0
520 260 1 5.554216 6.725953 4.935687 0 0 0
521 261 1 5.817371 6.681647 5.015917 0 0 0
522 261 1 5.432629 5.818353 5.234083 0 0 0
523 262 1 5.577273 6.681237 5.158246 0 0 0
524 262 1 5.672727 5.818763 5.591754 0 0 0
525 263 1 5.530378 5.922243 5.969742 0 0 0
526 263 1 5.719622 6.577757 5.280258 0 0 0
527 264 1 6.100753 6.156296 5.864822 0 0 0
528 264 1 5.149247 6.343704 5.885178 0 0 0
529 265 1 6.043700 6.493607 6.148892 0 0 0
530 265 1 5.206300 6.006393 6.101108 0 0 0
531 266 1 5.807000 5.909228 6.668216 0 0 0
532 266 1 5.443000 6.590772 6.081784 0 0 0
533 267 1 5.218059 6.488451 6.512019 0 0 0
534 267 1 6.031941 6.011549 6.737981 0 0 0
535 268 1 5.760293 6.707094 6.785638 0 0 0
536 268 1 5.489707 5.792906 6.964362 0 0 0
537 269 1 5.729458 5.788408 7.231050 0 0 0
538 269 1 5.520542 6.711592 7.018950 0 0 0
539 270 1 5.404454 5.836447 7.499733 0 0 0
540 270 1 5.845546 6.663553 7.250267 0 0 0
541 271 1 5.170354 6.317452 7.470171 0 0 0
542 271 1 6.079646 6.182548 7.779829 0 0 0
543 272 1 5.681221 5.924916 8.230506 0 0 0
544 272 1 5.568779 6.575084 7.519494 0 0 0
545 273 1 5.170248 6.410877 8.175440 0 0 0
546 273 1 6.079752 6.089123 8.074560 0 0 0
547 274 1 5.719782 5.789434 8.493829 0 0 0
548 274 1 5.530218 6.710566 8.256171 0 0 0
549 275 1 5.371662 5.897532 8.841358 0 0 0
550 275 1 5.878338 6.602468 8.408642 0 0 0
551 276 1 5.892885 5.875494 8.722657 0 0 0
552 276 1 5.357115 6.624506 9.027343 0 0 0
553 277 1 5.762333 5.986148 9.508075 0 0 0
554 277 1 5.487667 6.513852 8.741925 0 0 0
555 278 1 5.802644 6.390158 9.803979 0 0 0
556 278 1 5.447356 6.109842 8.946021 0 0 0
557 279 1 5.373590 5.917073 9.872341 0 0 0
558 279 1 5.876410 6.582927 9.377659 0 0 0
559 280 1 5.717053 5.850862 9.615308 0 0 0
560 280 1 5.532947 6.649138 10.134692 0 0 0
561 281 1 5.707515 8.807704 0.599433 0 0 0
562 281 1 5.542485 8.692296 -0.349433 0 0 0
563 282 1 5.891441 8.855251 0.766352 0 0 0
564 282 1 5.358559 8.644749 -0.016352 0 0 0
565 283 1 6.024995 8.925454 0.414181 0 0 0
566 283 1 5.225005 8.574546 0.835819 0 0 0
567 284 1 5.628945 8.710599 0.391619 0 0 0
568 284 1 5.621055 8.789401 1.358381 0 0 0
569 285 1 5.908895 8.361573 1.186262 0 0 0
570 285 1 5.341105 9.138427 1.063738 0 0 0
571 286 1 6.091633 8.752002 1.507193 0 0 0
572 286 1 5.158367 8.747998 1.242807 0 0 0
573 287 1 5.331709 8.396419 1.780517 0 0 0
574 287 1 5.918291 9.103581 1.469483 0 0 0
575 288 1 5.432401 9.015461 1.517703 0 0 0
576 288 1 5.817599 8.484539 2.232297 0 0 0
577 289 1 5.262583 9.070274 2.088892 0 0 0
578 289 1 5.987417 8.429726 2.161108 0 0 0
579 290 1 5.264206 9.053877 2.262252 0 0 0
580 290 1 5.985794 8.446123 2.487748 0 0 0
581 291 1 5.656487 8.883013 2.159660 0 0 0
582 291 1 5.593513 8.616987 3.090340 0 0 0
583 292 1 5.449517 8.622207 2.441296 0 0 0
584 292 1 5.800483 8.877793 3.308704 0 0 0
585 293 1 5.383678 9.149526 2.993213 0 0 0
586 293 1 5.866322 8.350474 3.256787 0 0 0
587 294 1 5.373297 8.744565 2.960463 0 0 0
588 294 1 5.876703 8.755435 3.789537 0 0 0
589 295 1 5.244084 8.805193 3.329903 0 0 0
590 295 1 6.005916 8.694807 3.920097 0 0 0
591 296 1 5.823811 8.825989 4.310804 0 0 0
592 296 1 5.426189 8.674011 3.439196 0 0 0
593 297 1 5.741157 8.279177 4.117370 0 0 0
594 297 1 5.508843 9.220823 4.132630 0 0 0
595 298 1 6.019063 8.797125 4.653781 0 0 0
596 298 1 5.230937 8.702875 4.096219 0 0 0
597 299 1 5.837787 9.179581 4.698534 0 0 0
598 299 1 5.412213 8.320419 4.551466 0 0 0
599 300 1 5.379153 9.168017 4.868223 0 0 0
600 300 1 5.870847 8.331983 4.881777 0 0 0
601 301 1 5.464488 8.506582 5.512567 0 0 0
602 301 1 5.785512 8.993418 4.737433 0 0 0
603 302 1 5.808095 9.151488 5.173732 0 0 0
604 302 1 5.441905 8.348512 5.576268 0 0 0
605 303 1 5.885878 8.513017 5.958177 0 0 0
606 303 1 5.364122 8.986983 5.291823 0 0 0
607 304 1 5.165298 8.904407 5.882600 0 0 0
608 304 1 6.084702 8.595593 5.867400 0 0 0
609 305 1 5.958821 9.033527 5.916671 0 0 0
610 305 1 5.291179 8.466473 6.333329 0 0 0
611 306 1 6.065601 8.951865 6.393616 0 0 0
612 306 1 5.184399 8.548135 6.356384 0 0 0
613 307 1 5.907949 8.674083 7.011525 0 0 0
614 307 1 5.342051 8.825917 6.238475 0 0 0
615 308 1 5.188136 8.821269 6.676770 0 0 0
616 308 1 6.061864 8.678731 7.073230 0 0 0
617 309 1 5.485552 8.762136 6.660638 0 0 0
618 309 1 5.764448 8.737864 7.589362 0 0 0
619 310 1 5.630750 8.924973 7.827301 0 0 0
620 310 1 5.619250 8.575027 6.922699 0 0 0
621 311 1 5.935606 8.439147 7.830231 0 0 0
622 311 1 5.314394 9.060853 7.419769 0 0 0
623 312 1 5.580647 9.232909 7.882534 0 0 0
624 312 1 5.669353 8.267091 7.867466 0 0 0
625 313 1 5.603699 9.234528 8.123078 0 0 0
626 313 1 5.646301 8.265472 8.126922 0 0 0
627 314 1 5.328000 8.445552 8.141918 0 0 0
628 314 1 5.922000 9.054448 8.608082 0 0 0
629 315 1 5.208044 8.997688 8.629842 0 0 0
630 315 1 6.041956 8.502312 8.620158 0 0 0
631 316 1 5.449993 8.719321 9.326283 0 0 0
632 316 1 5.800007 8.780679 8.423717 0 0 0
633 317 1 5.884829 8.376422 8.957211 0 0 0
634 317 1 5.365171 9.123578 9.292789 0 0 0
635 318 1 5.842060 8.317867 9.337968 0 0 0
636 318 1 5.407940 9.182133 9.412032 0 0 0
637 319 1 5.200237 8.724683 9.392276 0 0 0
638 319 1 6.049763 8.775317 9.857724 0 0 0
639 320 1 5.304413 8.494229 10.133902 0 0 0
640 320 1 5.945587 9.005771 9.616098 0 0 0
641 321 1 9.456604 1.714606 0.012276 0 0 0
642 321 1 9.293396 0.785394 0.237724 0 0 0
643 322 1 9.654637 1.641478 0.313574 0 0 0
644 322 1 9.095363 0.858522 0.436426 0 0 0
645 323 1 9.286697 1.726883 0.621761 0 0 0
646 323 1 9.463303 0.773117 0.628239 0 0 0
647 324 1 9.164973 0.955170 0.552216 0 0 0
648 324 1 9.585027 1.544830 1.197784 0 0 0
649 325 1 8.964243 1.396860 0.913018 0 0 0
650 325 1 9.785757 1.103140 1.336982 0 0 0
651 326 1 9.462613 1.096481 1.826642 0 0 0
652 326 1 9.287387 1.403519 0.923358 0 0 0
653 327 1 8.990142 1.338239 1.343356 0 0 0
654 327 1 9.759858 1.161761 1.906644 0 0 0
655 328 1 9.636868 1.404237 2.252970 0 0 0
656 328 1 9.113132 1.095763 1.497030 0 0 0
657 329 1 9.536948 0.826159 1.953662 0 0 0
658 329 1 9.213052 1.673841 2.296338 0 0 0
659 330 1 9.455417 0.846306 2.118506 0 0 0
660 330 1 9.294583 1.653694 2.631494 0 0 0
661 331 1 9.568784 1.456483 3.018748 0 0 0
662 331 1 9.181216 1.043517 2.231252 0 0 0
663 332 1 9.337813 1.708081 3.029931 0 0 0
664 332 1 9.412187 0.791919 2.720069 0 0 0
665 333 1 9.373587 0.800899 2.941886 0 0 0
666 333 1 9.376413 1.699101 3.308114 0 0 0
667 334 1 9.333296 0.786676 3.237826 0 0 0
668 334 1 9.416704 1.713324 3.512174 0 0 0
669 335 1 9.427559 0.842339 3.367560 0 0 0
670 335 1 9.322441 1.657661 3.882440 0 0 0
671 336 1 9.478547 1.589298 3.544274 0 0 0
672 336 1 9.271453 0.910702 4.205726 0 0 0
673 337 1 9.747256 1.185344 4.429089 0 0 0
674 337 1 9.002744 1.314656 3.820911 0 0 0
675 338 1 9.573450 1.609720 4.632767 0 0 0
676 338 1 9.176550 0.890280 4.117233 0 0 0
677 339 1 9.210984 0.904461 4.923206 0 0 0
678 339 1 9.539016 1.595539 4.326794 0 0 0
679 340 1 9.103412 0.859413 4.969375 0 0 0
680 340 1 9.646588 1.640587 4.780625 0 0 0
681 341 1 9.321098 1.106016 5.584987 0 0 0
682 341 1 9.428902 1.393984 4.665013 0 0 0
683 342 1 9.113881 1.018705 5.711963 0 0 0
684 342 1 9.636119 1.481295 5.038037 0 0 0
685 343 1 9.601729 1.638409 5.443459 0 0 0
686 343 1 9.148271 0.861591 5.806541 0 0 0
687 344 1 9.394207 1.680124 5.651730 0 0 0
688 344 1 9.355793 0.819876 6.098270 0 0 0
689 345 1 9.577189 0.847308 6.304397 0 0 0
690 345 1 9.172811 1.652692 5.945603 0 0 0
691 346 1 9.660471 1.638251 6.429703 0 0 0
692 346 1 9.089529 0.861749 6.320297 0 0 0
693 347 1 9.497691 1.237381 6.155945 0 0 0
694 347 1 9.252309 1.262619 7.094055 0 0 0
695 348 1 9.194119 0.888724 6.606696 0 0 0
696 348 1 9.555881 1.611276 7.143304 0 0 0
697 349 1 8.998732 1.219538 6.820501 0 0 0
698 349 1 9.751268 1.280462 7.429499 0 0 0
699 350 1 9.843192 1.321881 7.479184 0 0 0
700 350 1 8.906808 1.178119 7.270816 0 0 0
701 351 1 9.515016 1.683524 7.458636 0 0 0
702 351 1 9.234984 0.816476 7.791364 0 0 0
703 352 1 9.118022 1.462447 7.522788 0 0 0
704 352 1 9.631978 1.037553 8.227212 0 0 0
705 353 1 9.409288 0.830023 7.884857 0 0 0
706 353 1 9.340712 1.669977 8.365143 0 0 0
707 354 1 9.802291 1.316295 8.155336 0 0 0
708 354 1 8.947709 1.183705 8.594664 0 0 0
709 355 1 9.142199 1.488917 8.977062 0 0 0
710 355 1 9.607801 1.011083 8.272938 0 0 0
711 356 1 9.780330 1.139527 8.632661 0 0 0
712 356 1 8.969670 1.360473 9.117339 0 0 0
713 357 1 9.642008 1.654163 9.100844 0 0 0
714 357 1 9.107992 0.845837 9.149156 0 0 0
715 358 1 9.067171 0.892175 9.263519 0 0 0
716 358 1 9.682829 1.607825 9.486481 0 0 0
717 359 1 8.911156 1.391559 9.619123 0 0 0
718 359 1 9.838844 1.108441 9.630877 0 0 0
719 360 1 9.764871 1.474754 10.055864 0 0 0
720 360 1 8.985129 1.025246 9.694136 0 0 0
721 361 1 9.674090 3.689967 0.502049 0 0 0
722 361 1 9.075910 3.810033 -0.252049 0 0 0
723 362 1 9.121005 3.407688 0.606374 0 0 0
724 362 1 9.628995 4.092312 0.143626 0 0 0
725 363 1 9.700806 3.536972 0.335699 0 0 0
726 363 1 9.049194 3.963028 0.914301 0 0 0
727 364 1 9.733697 3.903185 1.163264 0 0 0
728 364 1 9.016303 3.596815 0.586736 0 0 0
729 365 1 8.934401 3.585198 1.006940 0 0 0
730 365 1 9.815599 3.914802 1.243060 0 0 0
731 366 1 8.943093 3.951191 1.465572 0 0 0
732 366 1 9.806907 3.548809 1.284428 0 0 0
733 367 1 9.754838 3.842047 1.912185 0 0 0
734 367 1 8.995162 3.657953 1.337815 0 0 0
735 368 1 9.110951 4.136121 2.003116 0 0 0
736 368 1 9.639049 3.363879 1.746884 0 0 0
737 369 1 9.212414 3.549352 1.714474 0 0 0
738 369 1 9.537586 3.950648 2.535526 0 0 0
739 370 1 9.312308 3.740434 2.855836 0 0 0
740 370 1 9.437692 3.759566 1.894164 0 0 0
741 371 1 9.798183 3.836568 2.845561 0 0 0
742 371 1 8.951817 3.663432 2.404439 0 0 0
743 372 1 8.897644 3.665004 2.886469 0 0 0
744 372 1 9.852356 3.834996 2.863531 0 0 0
745 373 1 9.233928 4.211817 3.079738 0 0 0
746 373 1 9.516072 3.288183 3.170262 0 0 0
747 374 1 9.167898 3.669021 3.806017 0 0 0
748 374 1 9.582102 3.830979 2.943983 0 0 0
749 375 1 8.980215 3.764697 3.343657 0 0 0
750 375 1 9.769785 3.735303 3.906343 0 0 0
751 376 1 9.341239 3.267680 3.913118 0 0 0
752 376 1 9.408761 4.232320 3.836882 0 0 0
753 377 1 9.181228 3.652381 3.691240 0 0 0
754 377 1 9.568772 3.847619 4.558760 0 0 0
755 378 1 9.440012 3.780228 4.854672 0 0 0
756 378 1 9.309988 3.719772 3.895328 0 0 0
757 379 1 9.037551 3.554535 4.913352 0 0 0
758 379 1 9.712449 3.945465 4.336648 0 0 0
759 380 1 8.935960 3.942570 4.948387 0 0 0
760 380 1 9.814040 3.557430 4.801613 0 0 0
761 381 1 9.472414 4.078484 4.781731 0 0 0
762 381 1 9.277586 3.421516 5.468269 0 0 0
763 382 1 9.085334 3.668900 5.755449 0 0 0
764 382 1 9.664666 3.831100 4.994551 0 0 0
765 383 1 9.210069 4.166547 5.439229 0 0 0
766 383 1 9.539931 3.333453 5.810771 0 0 0
767 384 1 9.292225 4.144012 6.145421 0 0 0
768 384 1 9.457775 3.355988 5.604579 0 0 0
769 385 1 9.073567 3.924477 5.787479 0 0 0
770 385 1 9.676433 3.575523 6.462521 0 0 0
771 386 1 9.480231 3.753351 5.901566 0 0 0
772 386 1 9.269769 3.746649 6.848434 0 0 0
773 387 1 8.944557 3.726079 6.847198 0 0 0
774 387 1 9.805443 3.773921 6.402802 0 0 0
775 388 1 9.321054 3.319153 6.658931 0 0 0
776 388 1 9.428946 4.180847 7.091069 0 0 0
777 389 1 9.834587 3.601172 7.168066 0 0 0
778 389 1 8.915413 3.898828 7.081934 0 0 0
779 390 1 9.419312 3.658692 7.849262 0 0 0
780 390 1 9.330688 3.841308 6.900738 0 0 0
781 391 1 9.656961 4.043605 7.361335 0 0 0
782 391 1 9.093039 3.456395 7.888665 0 0 0
783 392 1 9.017943 3.781308 7.548266 0 0 0
784 392 1 9.732057 3.718692 8.201734 0 0 0
785 393 1 9.143200 3.832387 7.707021 0 0 0
786 393 1 9.606800 3.667613 8.542979 0 0 0
787 394 1 9.209538 3.505816 8.759996 0 0 0
788 394 1 9.540462 3.994184 7.990004 0 0 0
789 395 1 9.635478 3.482056 8.315836 0 0 0
790 395 1 9.114522 4.017944 8.934164 0 0 0
791 396 1 9.250010 3.998335 9.272407 0 0 0
792 396 1 9.499990 3.501665 8.477593 0 0 0
793 397 1 9.090432 3.359758 9.080754 0 0 0
794 397 1 9.659568 4.140242 9.169246 0 0 0
795 398 1 9.435610 3.320049 9.591088 0 0 0
796 398 1 9.314390 4.179951 9.158912 0 0 0
797 399 1 9.083232 3.642453 9.997196 0 0 0
798 399 1 9.666768 3.857547 9.252804 0 0 0
799 400 1 9.610003 3.326951 9.907059 0 0 0
800 400 1 9.139997 4.173049 9.842941 0 0 0
801 401 1 9.254810 6.449525 0.550405 0 0 0
802 401 1 9.495190 6.050475 -0.300405 0 0 0
803 402 1 9.048099 6.505087 0.123422 0 0 0
804 402 1 9.701901 5.994913 0.626578 0 0 0
805 403 1 9.743590 6.561987 0.579941 0 0 0
806 403 1 9.006410 5.938013 0.670059 0 0 0
807 404 1 9.075763 6.631148 0.895200 0 0 0
808 404 1 9.674237 5.868852 0.854800 0 0 0
809 405 1 9.802925 6.304246 1.346727 0 0 0
810 405 1 8.947075 6.195754 0.903273 0 0 0
811 406 1 9.227555 6.579089 1.050677 0 0 0
812 406 1 9.522445 5.920911 1.699323 0 0 0
813 407 1 9.347429 6.380658 2.091255 0 0 0
814 407 1 9.402571 6.119342 1.158745 0 0 0
815 408 1 9.585163 6.325369 1.444447 0 0 0
816 408 1 9.164837 6.174631 2.305553 0 0 0
817 409 1 9.815744 6.091859 2.251336 0 0 0
818 409 1 8.934256 6.408141 1.998664 0 0 0
819 410 1 8.947267 6.218235 2.601407 0 0 0
820 410 1 9.802733 6.281765 2.148593 0 0 0
821 411 1 9.105991 6.029031 2.962686 0 0 0
822 411 1 9.644009 6.470969 2.287314 0 0 0
823 412 1 9.145284 5.959793 2.561574 0 0 0
824 412 1 9.604716 6.540207 3.188426 0 0 0
825 413 1 8.927963 6.158392 3.289289 0 0 0
826 413 1 9.822037 6.341608 2.960711 0 0 0
827 414 1 9.363948 6.734706 3.362253 0 0 0
828 414 1 9.386052 5.765294 3.387747 0 0 0
829 415 1 9.661768 6.028385 3.302702 0 0 0
830 415 1 9.088232 6.471615 3.947298 0 0 0
831 416 1 9.334790 6.542873 4.259491 0 0 0
832 416 1 9.415210 5.957127 3.490509 0 0 0
833 417 1 8.892490 6.200939 4.126331 0 0 0
834 417 1 9.857510 6.299061 4.123669 0 0 0
835 418 1 8.999748 5.956087 4.285411 0 0 0
836 418 1 9.750252 6.543913 4.464589 0 0 0
837 419 1 9.641284 6.201599 4.222539 0 0 0
838 419 1 9.108716 6.298401 5.027461 0 0 0
839 420 1 9.531993 6.384893 5.313614 0 0 0
840 420 1 9.218007 6.115107 4.436386 0 0 0
841 421 1 9.462576 6.725172 5.167035 0 0 0
842 421 1 9.287424 5.774828 5.082965 0 0 0
843 422 1 9.068345 6.021996 5.673666 0 0 0
844 422 1 9.681655 6.478004 5.076334 0 0 0
845 423 1 9.047675 6.266469 5.982508 0 0 0
846 423 1 9.702325 6.233531 5.267492 0 0 0
847 424 1 9.702451 6.569926 6.035150 0 0 0
848 424 1 9.047549 5.930074 5.714850 0 0 0
849 425 1 9.644530 6.216734 5.723164 0 0 0
850 425 1 9.105470 6.283266 6.526836 0 0 0
851 426 1 9.106827 6.515795 6.070596 0 0 0
852 426 1 9.643173 5.984205 6.679404 0 0 0
853 427 1 9.203684 6.691149 6.518872 0 0 0
854 427 1 9.546316 5.808851 6.731128 0 0 0
855 428 1 9.741706 6.096664 6.597080 0 0 0
856 428 1 9.008294 6.403336 7.152920 0 0 0
857 429 1 9.507209 6.458899 7.542261 0 0 0
858 429 1 9.242791 6.041101 6.707739 0 0 0
859 430 1 8.984352 6.359875 7.109394 0 0 0
860 430 1 9.765648 6.140125 7.640606 0 0 0
861 431 1 9.173521 6.638240 7.415476 0 0 0
862 431 1 9.576479 5.861760 7.834524 0 0 0
863 432 1 9.207665 5.949882 7.532724 0 0 0
864 432 1 9.542335 6.550118 8.217276 0 0 0
865 433 1 8.927436 6.070334 8.176296 0 0 0
866 433 1 9.822564 6.429666 8.073704 0 0 0
867 434 1 9.104256 6.031226 8.712729 0 0 0
868 434 1 9.645744 6.468774 8.037271 0 0 0
869 435 1 9.190977 6.082783 8.208588 0 0 0
870 435 1 9.559023 6.417217 9.041412 0 0 0
871 436 1 9.067794 6.014068 9.166865 0 0 0
872 436 1 9.682206 6.485932 8.583135 0 0 0
873 437 1 8.964834 6.461878 9.273648 0 0 0
874 437 1 9.785166 6.038122 8.976352 0 0 0
875 438 1 9.465943 5.774262 9.349943 0 0 0
876 438 1 9.284057 6.725738 9.400057 0 0 0
877 439 1 9.314357 6.025103 10.050404 0 0 0
878 439 1 9.435643 6.474897 9.199596 0 0 0
879 440 1 8.896679 6.292979 9.942726 0 0 0
880 440 1 9.853321 6.207021 9.807274 0 0 0
881 441 1 9.758314 8.871126 0.396337 0 0 0
882 441 1 8.991686 8.628874 -0.146337 0 0 0
883 442 1 9.299211 8.324659 0.154623 0 0 0
884 442 1 9.450789 9.175341 0.595377 0 0 0
885 443 1 9.426622 8.302017 0.803526 0 0 0
886 443 1 9.323378 9.197983 0.446474 0 0 0
887 444 1 9.302347 8.809008 1.350883 0 0 0
888 444 1 9.447653 8.690992 0.399117 0 0 0
889 445 1 9.295167 8.753771 1.603370 0 0 0
890 445 1 9.454833 8.746229 0.646630 0 0 0
891 446 1 9.269953 8.740759 0.901603 0 0 0
892 446 1 9.480047 8.759241 1.848397 0 0 0
893 447 1 9.784545 8.538618 1.473952 0 0 0
894 447 1 8.965455 8.961382 1.776048 0 0 0
895 448 1 8.890944 8.721618 1.864532 0 0 0
896 448 1 9.859056 8.778382 1.885468 0 0 0
897 449 1 9.611309 8.748979 2.548535 0 0 0
898 449 1 9.138691 8.751021 1.701465 0 0 0
899 450 1 9.459407 8.507861 2.786666 0 0 0
900 450 1 9.290593 8.992139 1.963334 0 0 0
901 451 1 9.247456 9.213716 2.687653 0 0 0
902 451 1 9.502544 8.286284 2.562347 0 0 0
903 452 1 9.365985 8.907357 2.416325 0 0 0
904 452 1 9.384015 8.592643 3.333675 0 0 0
905 453 1 9.299638 9.102504 3.449479 0 0 0
906 453 1 9.450362 8.397496 2.800521 0 0 0
907 454 1 8.897185 8.667422 3.384918 0 0 0
908 454 1 9.852815 8.832578 3.365082 0 0 0
909 455 1 9.593352 8.770688 3.192427 0 0 0
910 455 1 9.156648 8.729312 4.057573 0 0 0
911 456 1 9.803850 8.833738 3.664523 0 0 0
912 456 1 8.946150 8.666262 4.085477 0 0 0
913 457 1 8.892214 8.794811 4.136598 0 0 0
914 457 1 9.857786 8.705189 4.113402 0 0 0
915 458 1 9.267510 9.222420 4.397140 0 0 0
916 458 1 9.482490 8.277580 4.352860 0 0 0
917 459 1 9.062885 8.379165 4.607963 0 0 0
918 459 1 9.687115 9.120835 4.642037 0 0 0
919 460 1 9.127557 9.137124 4.719655 0 0 0
920 460 1 9.622443 8.362876 5.030345 0 0 0
921 461 1 9.661694 8.439835 4.886610 0 0 0
922 461 1 9.088306 9.060165 5.363390 0 0 0
923 462 1 9.843536 8.695073 5.262386 0 0 0
924 462 1 8.906464 8.804927 5.487614 0 0 0
925 463 1 9.521141 9.102292 5.924596 0 0 0
926 463 1 9.228859 8.397708 5.325404 0 0 0
927 464 1 9.741520 8.507792 5.669517 0 0 0
928 464 1 9.008480 8.992208 6.080483 0 0 0
929 465 1 9.080533 8.597984 5.770874 0 0 0
930 465 1 9.669467 8.902016 6.479126 0 0 0
931 466 1 8.977080 8.504805 6.504476 0 0 0
932 466 1 9.772920 8.995195 6.245524 0 0 0
933 467 1 9.822323 8.910538 6.528283 0 0 0
934 467 1 8.927677 8.589462 6.721717 0 0 0
935 468 1 9.039587 8.500401 6.629189 0 0 0
936 468 1 9.710413 8.999599 7.120811 0 0 0
937 469 1 8.974601 8.873289 7.369347 0 0 0
938 469 1 9.775399 8.626711 6.880653 0 0 0
939 470 1 9.609014 8.355943 7.216314 0 0 0
940 470 1 9.140986 9.144057 7.533686 0 0 0
941 471 1 9.655483 8.358132 7.679714 0 0 0
942 471 1 9.094517 9.141868 7.570286 0 0 0
943 472 1 9.194070 8.367622 8.112227 0 0 0
944 472 1 9.555930 9.132378 7.637773 0 0 0
945 473 1 9.502888 9.184640 8.298082 0 0 0
946 473 1 9.247112 8.315360 7.951918 0 0 0
947 474 1 8.996268 8.855918 8.658846 0 0 0
948 474 1 9.753732 8.644082 8.091154 0 0 0
949 475 1 8.897189 8.799874 8.558410 0 0 0
950 475 1 9.852811 8.700126 8.691590 0 0 0
951 476 1 9.625527 8.378907 9.061417 0 0 0
952 476 1 9.124473 9.121093 8.688583 0 0 0
953 477 1 9.509401 8.389171 8.830104 0 0 0
954 477 1 9.240599 9.110829 9.419896 0 0 0
955 478 1 9.239716 8.607233 9.818329 0 0 0
956 478 1 9.510284 8.892767 8.931671 0 0 0
957 479 1 9.178116 9.099831 9.352823 0 0 0
958 479 1 9.571884 8.400169 9.897177 0 0 0
959 480 1 9.276879 8.881268 10.331471 0 0 0
960 480 1 9.473121 8.618732 9.418529 0 0 0
961 481 1 13.509191 0.954682 0.104763 0 0 0
962 481 1 12.740809 1.545318 0.145237 0 0 0
963 482 1 13.193722 1.694813 0.194323 0 0 0
964 482 1 13.056278 0.805187 0.555677 0 0 0
965 483 1 13.566299 1.296488 0.429248 0 0 0
966 483 1 12.683701 1.203512 0.820752 0 0 0
967 484 1 13.140014 0.830008 1.117087 0 0 0
968 484 1 13.109986 1.669992 0.632913 0 0 0
969 485 1 12.794459 1.055155 0.828346 0 0 0
970 485 1 13.455541 1.444845 1.421654 0 0 0
971 486 1 12.912613 0.991424 1.726077 0 0 0
972 486 1 13.337387 1.508576 1.023923 0 0 0
973 487 1 13.539845 1.475815 1.735166 0 0 0
974 487 1 12.710155 1.024185 1.514834 0 0 0
975 488 1 13.008158 0.794540 1.756133 0 0 0
976 488 1 13.241842 1.705460 1.993867 0 0 0
977 489 1 13.027401 0.852950 2.385865 0 0 0
978 489 1 13.222599 1.647050 1.864135 0 0 0
979 490 1 12.942965 1.608886 2.645720 0 0 0
980 490 1 13.307035 0.891114 2.104280 0 0 0
981 491 1 12.863328 1.620834 2.454017 0 0 0
982 491 1 13.386672 0.879166 2.795983 0 0 0
983 492 1 13.103037 1.046381 3.314638 0 0 0
984 492 1 13.146963 1.453619 2.435362 0 0 0
985 493 1 12.812306 0.879961 3.147780 0 0 0
986 493 1 13.437694 1.620039 3.102220 0 0 0
987 494 1 12.727408 1.046288 3.563805 0 0 0
988 494 1 13.522592 1.453712 3.186195 0 0 0
989 495 1 13.260297 1.686597 3.462819 0 0 0
990 495 1 12.989703 0.813403 3.787181 0 0 0
991 496 1 13.584673 1.403804 3.891437 0 0 0
992 496 1 12.665327 1.096196 3.858563 0 0 0
993 497 1 13.446629 1.611498 4.158152 0 0 0
994 497 1 12.803371 0.888502 4.091848 0 0 0
995 498 1 12.947341 1.057660 3.966750 0 0 0
996 498 1 13.302659 1.442340 4.783250 0 0 0
997 499 1 13.443923 1.475094 4.912830 0 0 0
998 499 1 12.806077 1.024906 4.337170 0 0 0
999 500 1 13.244775 1.454698 4.451943 0 0 0
1000 500 1 13.005225 1.045302 5.298057 0 0 0
1001 501 1 13.349817 1.496998 5.476673 0 0 0
1002 501 1 12.900183 1.003002 4.773327 0 0 0
1003 502 1 13.404930 0.859887 5.443381 0 0 0
1004 502 1 12.845070 1.640113 5.306619 0 0 0
1005 503 1 12.757248 1.450013 5.869904 0 0 0
1006 503 1 13.492752 1.049987 5.380096 0 0 0
1007 504 1 12.782757 1.078918 5.576963 0 0 0
1008 504 1 13.467243 1.421082 6.173037 0 0 0
1009 505 1 13.325408 1.108959 6.543532 0 0 0
1010 505 1 12.924592 1.391041 5.706468 0 0 0
1011 506 1 12.926604 1.692292 6.390553 0 0 0
1012 506 1 13.323396 0.807708 6.359447 0 0 0
1013 507 1 12.712966 1.131735 6.398138 0 0 0
1014 507 1 13.537034 1.368265 6.851862 0 0 0
1015 508 1 13.593898 1.373427 6.863797 0 0 0
1016 508 1 12.656102 1.126573 6.886203 0 0 0
1017 509 1 12.990416 1.673401 7.319535 0 0 0
1018 509 1 13.259584 0.826599 6.930465 0 0 0
1019 510 1 13.108805 0.769360 7.437836 0 0 0
1020 510 1 13.141195 1.730640 7.312164 0 0 0
1021 511 1 12.846843 1.291368 8.020148 0 0 0
1022 511 1 13.403157 1.208632 7.229852 0 0 0
1023 512 1 12.692321 1.070244 7.749692 0 0 0
1024 512 1 13.557679 1.429756 8.000308 0 0 0
1025 513 1 12.704895 1.168549 8.353260 0 0 0
1026 513 1 13.545105 1.331451 7.896740 0 0 0
1027 514 1 12.876243 1.078761 8.754503 0 0 0
1028 514 1 13.373757 1.421239 7.995497 0 0 0
1029 515 1 12.705954 1.125039 8.415215 0 0 0
1030 515 1 13.544046 1.374961 8.834785 0 0 0
1031 516 1 13.439066 1.088045 9.207202 0 0 0
1032 516 1 12.810934 1.411955 8.542798 0 0 0
1033 517 1 12.739109 1.482087 8.944864 0 0 0
1034 517 1 13.510891 1.017913 9.305136 0 0 0
1035 518 1 12.757366 1.522778 9.535196 0 0 0
1036 518 1 13.492634 0.977222 9.214804 0 0 0
1037 519 1 13.211408 1.370068 10.086890 0 0 0
1038 519 1 13.038592 1.129932 9.163110 0 0 0
1039 520 1 12.768891 1.145715 9.562692 0 0 0
1040 520 1 13.481109 1.354285 10.187308 0 0 0
1041 521 1 12.672597 3.696981 -0.041569 0 0 0
1042 521 1 13.577403 3.803019 0.291569 0 0 0
1043 522 1 13.370288 3.676955 0.786975 0 0 0
1044 522 1 12.879712 3.823045 -0.036975 0 0 0
1045 523 1 13.595147 3.657800 0.549594 0 0 0
1046 523 1 12.654853 3.842200 0.700406 0 0 0
1047 524 1 13.247502 3.404292 0.557661 0 0 0
1048 524 1 13.002498 4.095708 1.192339 0 0 0
1049 525 1 13.511534 4.040872 1.159793 0 0 0
1050 525 1 12.738466 3.459128 1.090207 0 0 0
1051 526 1 13.380194 4.162263 1.363162 0 0 0
1052 526 1 12.869806 3.337737 1.386838 0 0 0
1053 527 1 12.831302 3.936297 1.963024 0 0 0
1054 527 1 13.418698 3.563703 1.286976 0 0 0
1055 528 1 12.658368 3.826592 1.767235 0 0 0
1056 528 1 13.591632 3.673408 1.982765 0 0 0
1057 529 1 13.311334 4.189246 2.211989 0 0 0
1058 529 1 12.938666 3.310754 2.038011 0 0 0
1059 530 1 13.133862 3.265103 2.379634 0 0 0
1060 530 1 13.116138 4.234897 2.370366 0 0 0
1061 531 1 13.027994 4.000619 3.028739 0 0 0
1062 531 1 13.222006 3.499381 2.221261 0 0 0
1063 532 1 13.159353 3.616880 3.340106 0 0 0
1064 532 1 13.090647 3.883120 2.409894 0 0 0
1065 533 1 13.155459 3.333853 2.877778 0 0 0
1066 533 1 13.094541 4.166147 3.372222 0 0 0
1067 534 1 13.388606 4.155631 3.409648 0 0 0
1068 534 1 12.861394 3.344369 3.340352 0 0 0
1069 535 1 12.891841 4.169426 3.695308 0 0 0
1070 535 1 13.358159 3.330574 3.554692 0 0 0
1071 536 1 12.977782 3.880849 4.318205 0 0 0
1072 536 1 13.272218 3.619151 3.431795 0 0 0
1073 537 1 13.161148 3.594261 4.582891 0 0 0
1074 537 1 13.088852 3.905739 3.667109 0 0 0
1075 538 1 12.749209 3.830802 4.670765 0 0 0
1076 538 1 13.500791 3.669198 4.079235 0 0 0
1077 539 1 13.405608 3.796949 5.017785 0 0 0
1078 539 1 12.844392 3.703051 4.232215 0 0 0
1079 540 1 12.921486 4.182202 4.958718 0 0 0
1080 540 1 13.328514 3.317798 4.791282 0 0 0
1081 541 1 12.722402 3.812700 4.861925 0 0 0
1082 541 1 13.527598 3.687300 5.388075 0 0 0
1083 542 1 13.508875 3.568180 5.140892 0 0 0
1084 542 1 12.741125 3.931820 5.609108 0 0 0
1085 543 1 13.029494 3.683355 6.095810 0 0 0
1086 543 1 13.220506 3.816645 5.154190 0 0 0
1087 544 1 13.139241 3.647930 5.401076 0 0 0
1088 544 1 13.110759 3.852070 6.348924 0 0 0
1089 545 1 13.526695 3.819755 6.387679 0 0 0
1090 545 1 12.723305 3.680245 5.862321 0 0 0
1091 546 1 13.470743 3.545606 6.646864 0 0 0
1092 546 1 12.779257 3.954394 6.103136 0 0 0
1093 547 1 13.088975 4.138156 6.336449 0 0 0
1094 547 1 13.161025 3.361844 6.913551 0 0 0
1095 548 1 12.803742 3.428321 6.706058 0 0 0
1096 548 1 13.446258 4.071679 7.043942 0 0 0
1097 549 1 13.066736 3.850772 7.595824 0 0 0
1098 549 1 13.183264 3.649228 6.654176 0 0 0
1099 550 1 13.507234 3.875220 7.103998 0 0 0
1100 550 1 12.742766 3.624780 7.646002 0 0 0
1101 551 1 13.432807 3.479462 7.365598 0 0 0
1102 551 1 12.817193 4.020538 7.884402 0 0 0
1103 552 1 13.053950 3.627831 8.338952 0 0 0
1104 552 1 13.196050 3.872169 7.411048 0 0 0
1105 553 1 13.041005 4.225986 8.165093 0 0 0
1106 553 1 13.208995 3.274014 8.084907 0 0 0
1107 554 1 13.491446 3.444475 8.287841 0 0 0
1108 554 1 12.758554 4.055525 8.462159 0 0 0
1109 555 1 12.650776 3.713436 8.530134 0 0 0
1110 555 1 13.599224 3.786564 8.719866 0 0 0
1111 556 1 13.363969 3.500383 9.215309 0 0 0
1112 556 1 12.886031 3.999617 8.534691 0 0 0
1113 557 1 12.939469 3.394283 9.397522 0 0 0
1114 557 1 13.310531 4.105717 8.852478 0 0 0
1115 558 1 13.159325 4.140590 9.660458 0 0 0
1116 558 1 13.090675 3.359410 9.089542 0 0 0
1117 559 1 13.253333 4.194879 9.769354 0 0 0
1118 559 1 12.996667 3.305121 9.480646 0 0 0
1119 560 1 13.028228 3.346136 10.125508 0 0 0
1120 560 1 13.221772 4.153864 9.624492 0 0 0
1121 561 1 12.650451 6.329626 0.185729 0 0 0
1122 561 1 13.599549 6.170374 0.064271 0 0 0
1123 562 1 13.077460 5.812000 0.577782 0 0 0
1124 562 1 13.172540 6.688000 0.172218 0 0 0
1125 563 1 13.334410 5.869860 0.841485 0 0 0
1126 563 1 12.915590 6.630140 0.408515 0 0 0
1127 564 1 13.594072 6.127683 0.859661 0 0 0
1128 564 1 12.655928 6.372317 0.890339 0 0 0
1129 565 1 13.210821 6.108947 0.668970 0 0 0
1130 565 1 13.039179 6.391053 1.581030 0 0 0
1131 566 1 13.181244 6.687375 1.576903 0 0 0
1132 566 1 13.068756 5.812625 1.173097 0 0 0
1133 567 1 12.651137 6.290821 1.719933 0 0 0
1134 567 1 13.598863 6.209179 1.530067 0 0 0
1135 568 1 12.891518 6.595853 1.627823 0 0 0
1136 568 1 13.358482 5.904147 2.122177 0 0 0
1137 569 1 12.976699 6.587277 1.809602 0 0 0
1138 569 1 13.273301 5.912723 2.440398 0 0 0
1139 570 1 12.695307 6.444305 2.488290 0 0 0
1140 570 1 13.554693 6.055695 2.261710 0 0 0
1141 571 1 13.405292 6.200152 2.232347 0 0 0
1142 571 1 12.844708 6.299848 3.017653 0 0 0
1143 572 1 13.096862 6.577054 2.517972 0 0 0
1144 572 1 13.153138 5.922946 3.232028 0 0 0
1145 573 1 12.936880 5.825100 3.263908 0 0 0
1146 573 1 13.313120 6.674900 2.986092 0 0 0
1147 574 1 13.128104 6.734535 3.353985 0 0 0
1148 574 1 13.121896 5.765465 3.396015 0 0 0
1149 575 1 12.959959 6.413026 4.050921 0 0 0
1150 575 1 13.290041 6.086974 3.199079 0 0 0
1151 576 1 12.685855 6.143303 3.698953 0 0 0
1152 576 1 13.564145 6.356697 4.051047 0 0 0
1153 577 1 13.477638 6.575602 4.055320 0 0 0
1154 577 1 12.772362 5.924398 4.194680 0 0 0
1155 578 1 12.785519 5.903704 4.382526 0 0 0
1156 578 1 13.464481 6.596296 4.367474 0 0 0
1157 579 1 13.467643 5.998731 4.858848 0 0 0
1158 579 1 12.782357 6.501269 4.391152 0 0 0
1159 580 1 12.990523 6.484644 5.277596 0 0 0
1160 580 1 13.259477 6.015356 4.472404 0 0 0
1161 581 1 13.544718 6.209825 4.885318 0 0 0
1162 581 1 12.705282 6.290175 5.364682 0 0 0
1163 582 1 13.450677 6.511164 5.128114 0 0 0
1164 582 1 12.799323 5.988836 5.621886 0 0 0
1165 583 1 13.254230 6.646328 5.377112 0 0 0
1166 583 1 12.995770 5.853672 5.872888 0 0 0
1167 584 1 13.394017 6.646671 5.800789 0 0 0
1168 584 1 12.855983 5.853329 5.949211 0 0 0
1169 585 1 13.251688 6.231094 5.657220 0 0 0
1170 585 1 12.998312 6.268906 6.592780 0 0 0
1171 586 1 13.324026 6.684927 6.455323 0 0 0
1172 586 1 12.925974 5.815073 6.294677 0 0 0
1173 587 1 12.957936 5.802183 6.707307 0 0 0
1174 587 1 13.292064 6.697817 6.542693 0 0 0
1175 588 1 13.231973 6.289490 6.403595 0 0 0
1176 588 1 13.018027 6.210510 7.346405 0 0 0
1177 589 1 13.112170 6.496065 6.707253 0 0 0
1178 589 1 13.137830 6.003935 7.542747 0 0 0
1179 590 1 12.729631 6.274692 7.095182 0 0 0
1180 590 1 13.520369 6.225308 7.654818 0 0 0
1181 591 1 12.941168 5.833555 7.792344 0 0 0
1182 591 1 13.308832 6.666445 7.457656 0 0 0
1183 592 1 13.157947 5.791622 7.719986 0 0 0
1184 592 1 13.092053 6.708378 8.030014 0 0 0
1185 593 1 13.433612 5.970671 8.373915 0 0 0
1186 593 1 12.816388 6.529329 7.876085 0 0 0
1187 594 1 13.019097 5.777955 8.340604 0 0 0
1188 594 1 13.230903 6.722045 8.409396 0 0 0
1189 595 1 13.218691 6.268412 8.149492 0 0 0
1190 595 1 13.031309 6.231588 9.100508 0 0 0
1191 596 1 13.294497 6.566281 8.548715 0 0 0
1192 596 1 12.955503 5.933719 9.201285 0 0 0
1193 597 1 13.080281 5.827598 9.359097 0 0 0
1194 597 1 13.169719 6.672402 8.890903 0 0 0
1195 598 1 12.815317 6.568261 9.179984 0 0 0
1196 598 1 13.434683 5.931739 9.570016 0 0 0
1197 599 1 13.105044 6.718978 9.502989 0 0 0
1198 599 1 13.144956 5.781022 9.747011 0 0 0
1199 600 1 13.415134 6.526712 10.147906 0 0 0
1200 600 1 12.834866 5.973288 9.602094 0 0 0
1201 601 1 13.522502 8.680070 0.393936 0 0 0
1202 601 1 12.727498 8.819930 -0.143936 0 0 0
1203 602 1 12.784410 8.412174 0.446392 0 0 0
1204 602 1 13.465590 9.087826 0.303608 0 0 0
1205 603 1 13.421471 8.824849 0.248533 0 0 0
1206 603 1 12.828529 8.675151 1.001467 0 0 0
1207 604 1 13.132014 9.234255 0.900944 0 0 0
1208 604 1 13.117986 8.265745 0.849056 0 0 0
1209 605 1 13.451822 9.089323 1.009796 0 0 0
1210 605 1 12.798178 8.410677 1.240204 0 0 0
1211 606 1 13.078950 9.038468 0.987843 0 0 0
1212 606 1 13.171050 8.461532 1.762157 0 0 0
1213 607 1 13.473800 8.447475 1.773466 0 0 0
1214 607 1 12.776200 9.052525 1.476534 0 0 0
1215 608 1 13.398539 8.381800 1.717424 0 0 0
1216 608 1 12.851461 9.118200 2.032576 0 0 0
1217 609 1 12.690144 8.697280 2.333197 0 0 0
1218 609 1 13.559856 8.802720 1.916803 0 0 0
1219 610 1 13.004960 9.053209 2.016002 0 0 0
1220 610 1 13.245040 8.446791 2.733998 0 0 0
1221 611 1 12.979513 8.311969 2.476044 0 0 0
1222 611 1 13.270487 9.188031 2.773956 0 0 0
1223 612 1 12.943597 8.319929 3.006745 0 0 0
1224 612 1 13.306403 9.180071 2.743255 0 0 0
1225 613 1 13.440802 8.396262 3.226804 0 0 0
1226 613 1 12.809198 9.103738 3.023196 0 0 0
1227 614 1 12.802054 8.937167 3.684676 0 0 0
1228 614 1 13.447946 8.562833 3.065324 0 0 0
1229 615 1 12.968944 8.355256 3.859625 0 0 0
1230 615 1 13.281056 9.144744 3.390375 0 0 0
1231 616 1 13.505231 8.992065 4.054035 0 0 0
1232 616 1 12.744769 8.507935 3.695965 0 0 0
1233 617 1 13.347696 8.319316 4.136968 0 0 0
1234 617 1 12.902304 9.180684 4.113032 0 0 0
1235 618 1 13.045638 8.433258 4.016390 0 0 0
1236 618 1 13.204362 9.066742 4.733610 0 0 0
1237 619 1 13.593435 8.673115 4.724411 0 0 0
1238 619 1 12.656565 8.826885 4.525589 0 0 0
1239 620 1 12.662370 8.638173 4.968240 0 0 0
1240 620 1 13.587630 8.861827 4.781760 0 0 0
1241 621 1 12.976333 8.320122 4.956692 0 0 0
1242 621 1 13.273667 9.179878 5.293308 0 0 0
1243 622 1 13.244025 8.601485 4.928904 0 0 0
1244 622 1 13.005975 8.898515 5.821096 0 0 0
1245 623 1 13.574939 8.765910 5.805351 0 0 0
1246 623 1 12.675061 8.734090 5.444649 0 0 0
1247 624 1 12.831991 8.414592 5.682979 0 0 0
1248 624 1 13.418009 9.085408 6.067021 0 0 0
1249 625 1 13.285066 8.936470 5.706870 0 0 0
1250 625 1 12.964934 8.563530 6.543130 0 0 0
1251 626 1 12.650279 8.737370 6.473515 0 0 0
1252 626 1 13.599721 8.762630 6.276485 0 0 0
1253 627 1 13.311450 8.442329 6.299731 0 0 0
1254 627 1 12.938550 9.057671 6.950269 0 0 0
1255 628 1 12.716834 8.562816 6.691731 0 0 0
1256 628 1 13.533166 8.937184 7.058269 0 0 0
1257 629 1 13.379632 8.571496 7.497188 0 0 0
1258 629 1 12.870368 8.928504 6.752812 0 0 0
1259 630 1 13.094395 9.139987 7.661703 0 0 0
1260 630 1 13.155605 8.360013 7.088297 0 0 0
1261 631 1 13.038552 8.272768 7.623675 0 0 0
1262 631 1 13.211448 9.227232 7.626325 0 0 0
1263 632 1 13.141714 8.701592 8.357289 0 0 0
1264 632 1 13.108286 8.798408 7.392711 0 0 0
1265 633 1 12.904630 8.869323 7.709760 0 0 0
1266 633 1 13.345370 8.630677 8.540240 0 0 0
1267 634 1 12.843718 9.099163 8.190093 0 0 0
1268 634 1 13.406282 8.400837 8.559907 0 0 0
1269 635 1 13.506758 8.795566 8.920651 0 0 0
1270 635 1 12.743242 8.704434 8.329349 0 0 0
1271 636 1 13.295598 8.682523 9.323964 0 0 0
1272 636 1 12.954402 8.817477 8.426036 0 0 0
1273 637 1 12.951846 8.357486 9.351220 0 0 0
1274 637 1 13.298154 9.142514 8.898780 0 0 0
1275 638 1 13.385199 8.448730 9.097948 0 0 0
1276 638 1 12.864801 9.051270 9.652052 0 0 0
1277 639 1 13.082862 8.268069 9.590480 0 0 0
1278 639 1 13.167138 9.231931 9.659520 0 0 0
1279 640 1 13.276604 8.799869 9.417010 0 0 0
1280 640 1 12.973396 8.700131 10.332990 0 0 0
1281 641 1 16.850759 1.302930 -0.356493 0 0 0
1282 641 1 16.899241 1.197070 0.606493 0 0 0
1283 642 1 16.778960 0.870270 0.661019 0 0 0
1284 642 1 16.971040 1.629730 0.088981 0 0 0
1285 643 1 17.086513 1.614911 0.864432 0 0 0
1286 643 1 16.663487 0.885089 0.385568 0 0 0
1287 644 1 16.684665 0.940216 0.554015 0 0 0
1288 644 1 17.065335 1.559784 1.195985 0 0 0
1289 645 1 16.965709 1.698557 0.964397 0 0 0
1290 645 1 16.784291 0.801443 1.285603 0 0 0
1291 646 1 17.011186 1.335054 1.832651 0 0 0
1292 646 1 16.738814 1.164946 0.917349 0 0 0
1293 647 1 16.812630 1.657317 1.880788 0 0 0
1294 647 1 16.937370 0.842683 1.369212 0 0 0
1295 648 1 16.450265 1.015886 1.870996 0 0 0
1296 648 1 17.299735 1.484114 1.879004 0 0 0
1297 649 1 16.993470 1.061038 1.694322 0 0 0
1298 649 1 16.756530 1.438962 2.555678 0 0 0
1299 650 1 16.940259 1.315723 1.898926 0 0 0
1300 650 1 16.809741 1.184277 2.851074 0 0 0
1301 651 1 17.153937 0.864530 2.718977 0 0 0
1302 651 1 16.596063 1.635470 2.531023 0 0 0
1303 652 1 17.123708 0.850046 2.990785 0 0 0
1304 652 1 16.626292 1.649954 2.759215 0 0 0
1305 653 1 17.096203 1.130802 2.710167 0 0 0
1306 653 1 16.653797 1.369198 3.539833 0 0 0
1307 654 1 16.773531 1.495384 3.780852 0 0 0
1308 654 1 16.976469 1.004616 2.969148 0 0 0
1309 655 1 16.816921 1.012670 3.206041 0 0 0
1310 655 1 16.933079 1.487330 4.043959 0 0 0
1311 656 1 16.964243 1.414377 4.322483 0 0 0
1312 656 1 16.785757 1.085623 3.427517 0 0 0
1313 657 1 16.439615 1.318367 4.327461 0 0 0
1314 657 1 17.310385 1.181633 3.922539 0 0 0
1315 658 1 16.868280 1.297044 4.857666 0 0 0
1316 658 1 16.881720 1.202956 3.892334 0 0 0
1317 659 1 16.928441 0.839340 4.372557 0 0 0
1318 659 1 16.821559 1.660660 4.877443 0 0 0
1319 660 1 16.913042 1.273039 4.392043 0 0 0
1320 660 1 16.836958 1.226961 5.357957 0 0 0
1321 661 1 17.337736 1.349597 5.230739 0 0 0
1322 661 1 16.412264 1.150403 5.019261 0 0 0
1323 662 1 16.893128 0.891844 5.701528 0 0 0
1324 662 1 16.856872 1.608156 5.048472 0 0 0
1325 663 1 17.157894 1.287026 6.017205 0 0 0
1326 663 1 16.592106 1.212974 5.232795 0 0 0
1327 664 1 16.579303 0.867981 5.831990 0 0 0
1328 664 1 17.170697 1.632019 5.918010 0 0 0
1329 665 1 16.834906 0.957796 5.739988 0 0 0
1330 665 1 16.915094 1.542204 6.510012 0 0 0
1331 666 1 17.234431 0.949161 6.250380 0 0 0
1332 666 1 16.515569 1.550839 6.499620 0 0 0
1333 667 1 16.960849 0.998738 7.030860 0 0 0
1334 667 1 16.789151 1.501262 6.219140 0 0 0
1335 668 1 17.240451 1.051865 6.625174 0 0 0
1336 668 1 16.509549 1.448135 7.124826 0 0 0
1337 669 1 17.061575 1.216332 7.571409 0 0 0
1338 669 1 16.688425 1.283668 6.678591 0 0 0
1339 670 1 16.742176 1.455982 6.956486 0 0 0
1340 670 1 17.007824 1.044018 7.793514 0 0 0
1341 671 1 17.031047 1.012551 8.018055 0 0 0
1342 671 1 16.718953 1.487449 7.231945 0 0 0
1343 672 1 16.899964 0.971088 8.270992 0 0 0
1344 672 1 16.850036 1.528912 7.479008 0 0 0
1345 673 1 17.125130 1.442437 7.756723 0 0 0
1346 673 1 16.624870 1.057563 8.493277 0 0 0
1347 674 1 17.323116 1.111473 8.251600 0 0 0
1348 674 1 16.426884 1.388527 8.498400 0 0 0
1349 675 1 16.830393 1.647420 8.350605 0 0 0
1350 675 1 16.919607 0.852580 8.899395 0 0 0
1351 676 1 17.112969 1.637367 8.706054 0 0 0
1352 676 1 16.637031 0.862633 9.043946 0 0 0
1353 677 1 17.318184 1.369761 9.281430 0 0 0
1354 677 1 16.431816 1.130239 8.968570 0 0 0
1355 678 1 16.418557 1.111632 9.462972 0 0 0
1356 678 1 17.331443 1.388368 9.287028 0 0 0
1357 679 1 17.147320 1.641271 9.714299 0 0 0
1358 679 1 16.602680 0.858729 9.535701 0 0 0
1359 680 1 16.475085 1.176681 10.139418 0 0 0
1360 680 1 17.274915 1.323319 9.610582 0 0 0
1361 681 1 16.820968 3.862570 -0.343651 0 0 0
1362 681 1 16.929032 3.637430 0.593651 0 0 0
1363 682 1 16.939743 4.226983 0.434334 0 0 0
1364 682 1 16.810257 3.273017 0.315666 0 0 0
1365 683 1 17.002982 3.350163 0.382150 0 0 0
1366 683 1 16.747018 4.149837 0.867850 0 0 0
1367 684 1 17.065777 4.041836 1.212136 0 0 0
1368 684 1 16.684223 3.458164 0.537864 0 0 0
1369 685 1 16.936950 4.119700 0.817251 0 0 0
1370 685 1 16.813050 3.380300 1.432749 0 0 0
1371 686 1 16.969912 3.686584 1.846376 0 0 0
1372 686 1 16.780088 3.813416 0.903624 0 0 0
1373 687 1 16.888016 4.233685 1.658237 0 0 0
1374 687 1 16.861984 3.266315 1.591763 0 0 0
1375 688 1 16.943916 3.569965 2.320043 0 0 0
1376 688 1 16.806084 3.930035 1.429957 0 0 0
1377 689 1 17.142811 4.123851 1.970930 0 0 0
1378 689 1 16.607189 3.376149 2.279070 0 0 0
1379 690 1 16.461109 3.982659 2.473941 0 0 0
1380 690 1 17.288891 3.517341 2.276059 0 0 0
1381 691 1 16.653003 3.643801 2.207071 0 0 0
1382 691 1 17.096997 3.856199 3.042929 0 0 0
1383 692 1 16.393771 3.807920 2.857997 0 0 0
1384 692 1 17.356229 3.692080 2.892003 0 0 0
1385 693 1 16.626576 3.551764 3.491351 0 0 0
1386 693 1 17.123424 3.948236 2.758649 0 0 0
1387 694 1 16.547400 3.495061 3.124182 0 0 0
1388 694 1 17.202600 4.004939 3.625818 0 0 0
1389 695 1 16.495082 3.457303 3.552779 0 0 0
1390 695 1 17.254918 4.042697 3.697221 0 0 0
1391 696 1 16.400134 3.724855 3.779633 0 0 0
1392 696 1 17.349866 3.775145 3.970367 0 0 0
1393 697 1 17.176152 3.637629 4.488188 0 0 0
1394 697 1 16.573848 3.862371 3.761812 0 0 0
1395 698 1 17.180905 3.415104 4.546733 0 0 0
1396 698 1 16.569095 4.084896 4.203267 0 0 0
1397 699 1 16.980792 3.278503 4.583479 0 0 0
1398 699 1 16.769208 4.221497 4.666521 0 0 0
1399 700 1 16.717325 3.432982 5.206456 0 0 0
1400 700 1 17.032675 4.067018 4.543544 0 0 0
1401 701 1 17.096719 3.318647 5.125599 0 0 0
1402 701 1 16.653281 4.181353 5.124401 0 0 0
1403 702 1 16.592292 3.805837 4.984893 0 0 0
1404 702 1 17.157708 3.694163 5.765107 0 0 0
1405 703 1 16.598628 4.003870 5.932236 0 0 0
1406 703 1 17.151372 3.496130 5.317764 0 0 0
1407 704 1 16.536221 3.713802 5.529829 0 0 0
1408 704 1 17.213779 3.786198 6.220171 0 0 0
1409 705 1 16.797185 4.090376 5.788379 0 0 0
1410 705 1 16.952815 3.409624 6.461621 0 0 0
1411 706 1 16.583969 3.389857 6.519302 0 0 0
1412 706 1 17.166031 4.110143 6.230698 0 0 0
1413 707 1 16.642034 3.617626 7.029264 0 0 0
1414 707 1 17.107966 3.882374 6.220736 0 0 0
1415 708 1 16.888488 3.583796 6.419567 0 0 0
1416 708 1 16.861512 3.916204 7.330433 0 0 0
1417 709 1 16.683694 3.776862 7.569866 0 0 0
1418 709 1 17.066306 3.723138 6.680134 0 0 0
1419 710 1 16.961675 4.183955 7.176516 0 0 0
1420 710 1 16.788325 3.316045 7.573484 0 0 0
1421 711 1 17.037049 3.672666 8.075538 0 0 0
1422 711 1 16.712951 3.827334 7.174462 0 0 0
1423 712 1 16.991201 3.432097 8.222362 0 0 0
1424 712 1 16.758799 4.067903 7.527638 0 0 0
1425 713 1 17.190223 4.062915 7.930209 0 0 0
1426 713 1 16.559777 3.437085 8.319791 0 0 0
1427 714 1 17.054651 3.314072 8.261344 0 0 0
1428 714 1 16.695349 4.185928 8.488656 0 0 0
1429 715 1 16.482512 3.482978 8.724385 0 0 0
1430 715 1 17.267488 4.017022 8.525615 0 0 0
1431 716 1 17.153846 3.560331 9.223562 0 0 0
1432 716 1 16.596154 3.939669 8.526438 0 0 0
1433 717 1 16.587286 3.801438 8.737960 0 0 0
1434 717 1 17.162714 3.698562 9.512040 0 0 0
1435 718 1 16.750409 4.187404 9.543463 0 0 0
1436 718 1 16.999591 3.312596 9.206537 0 0 0
1437 719 1 16.819954 3.530376 9.196094 0 0 0
1438 719 1 16.930046 3.969624 10.053906 0 0 0
1439 720 1 16.784275 3.428836 10.226920 0 0 0
1440 720 1 16.965725 4.071164 9.523080 0 0 0
1441 721 1 16.434847 6.177290 -0.065273 0 0 0
1442 721 1 17.315153 6.322710 0.315273 0 0 0
1443 722 1 16.390077 6.251594 0.383513 0 0 0
1444 722 1 17.359923 6.248406 0.366487 0 0 0
1445 723 1 17.047185 6.597426 0.333671 0 0 0
1446 723 1 16.702815 5.902574 0.916329 0 0 0
1447 724 1 17.195900 6.226922 1.237927 0 0 0
1448 724 1 16.554100 6.273078 0.512073 0 0 0
1449 725 1 17.166293 6.226427 0.737937 0 0 0
1450 725 1 16.583707 6.273573 1.512063 0 0 0
1451 726 1 16.951849 6.728143 1.348564 0 0 0
1452 726 1 16.798151 5.771857 1.401436 0 0 0
1453 727 1 17.183574 6.018615 1.919055 0 0 0
1454 727 1 16.566426 6.481385 1.330945 0 0 0
1455 728 1 16.436649 6.052749 1.939537 0 0 0
1456 728 1 17.313351 6.447251 1.810463 0 0 0
1457 729 1 16.573426 6.533128 2.378213 0 0 0
1458 729 1 17.176574 5.966872 1.871787 0 0 0
1459 730 1 16.852938 6.708506 2.218441 0 0 0
1460 730 1 16.897062 5.791494 2.531559 0 0 0
1461 731 1 17.136884 6.587795 2.854208 0 0 0
1462 731 1 16.613116 5.912205 2.395792 0 0 0
1463 732 1 17.103440 6.495497 3.225388 0 0 0
1464 732 1 16.646560 6.004503 2.524612 0 0 0
1465 733 1 16.694220 5.869273 3.364980 0 0 0
1466 733 1 17.055780 6.630727 2.885020 0 0 0
1467 734 1 16.801156 5.851334 3.641153 0 0 0
1468 734 1 16.948844 6.648666 3.108847 0 0 0
1469 735 1 16.985216 6.712237 3.527971 0 0 0
1470 735 1 16.764784 5.787763 3.722029 0 0 0
1471 736 1 16.545840 6.390681 4.202243 0 0 0
1472 736 1 17.204160 6.109319 3.547757 0 0 0
1473 737 1 16.705691 6.678158 3.972554 0 0 0
1474 737 1 17.044309 5.821842 4.277446 0 0 0
1475 738 1 16.539425 6.595130 4.434162 0 0 0
1476 738 1 17.210575 5.904870 4.315838 0 0 0
1477 739 1 16.924831 5.772628 4.694696 0 0 0
1478 739 1 16.825169 6.727372 4.555304 0 0 0
1479 740 1 16.456559 6.008750 4.831066 0 0 0
1480 740 1 17.293441 6.491250 4.918934 0 0 0
1481 741 1 17.253970 6.480046 4.928314 0 0 0
1482 741 1 16.496030 6.019954 5.321686 0 0 0
1483 742 1 16.627105 6.228273 5.791295 0 0 0
1484 742 1 17.122895 6.271727 4.958705 0 0 0
1485 743 1 16.787929 5.959185 6.003246 0 0 0
1486 743 1 16.962071 6.540815 5.246754 0 0 0
1487 744 1 16.771628 6.175837 6.343016 0 0 0
1488 744 1 16.978372 6.324163 5.406984 0 0 0
1489 745 1 16.715301 6.688827 5.994036 0 0 0
1490 745 1 17.034699 5.811173 6.255964 0 0 0
1491 746 1 16.988517 5.907271 6.698845 0 0 0
1492 746 1 16.761483 6.592729 6.051155 0 0 0
1493 747 1 17.170379 5.870644 6.688762 0 0 0
1494 747 1 16.579621 6.629356 6.561238 0 0 0
1495 748 1 17.245374 5.942313 6.933112 0 0 0
1496 748 1 16.504626 6.557687 6.816888 0 0 0
1497 749 1 16.757296 6.391335 7.573771 0 0 0
1498 749 1 16.992704 6.108665 6.676229 0 0 0
1499 750 1 16.498602 6.549964 7.434760 0 0 0
1500 750 1 17.251398 5.950036 7.315240 0 0 0
1501 751 1 16.664085 6.681982 7.560723 0 0 0
1502 751 1 17.085915 5.818018 7.689277 0 0 0
1503 752 1 16.906668 6.057152 8.318883 0 0 0
1504 752 1 16.843332 6.442848 7.431117 0 0 0
1505 753 1 17.191582 6.605596 8.217479 0 0 0
1506 753 1 16.558418 5.894404 8.032521 0 0 0
1507 754 1 17.020571 5.922064 8.048669 0 0 0
1508 754 1 16.729429 6.577936 8.701331 0 0 0
1509 755 1 16.522711 6.037407 8.881753 0 0 0
1510 755 1 17.227289 6.462593 8.368247 0 0 0
1511 756 1 17.289939 6.318835 9.116479 0 0 0
1512 756 1 16.460061 6.181165 8.633521 0 0 0
1513 757 1 17.025169 6.706653 9.189358 0 0 0
1514 757 1 16.724831 5.793347 9.060642 0 0 0
1515 758 1 16.598211 6.179161 8.983089 0 0 0
1516 758 1 17.151789 6.320839 9.766911 0 0 0
1517 759 1 17.192848 6.616312 9.628614 0 0 0
1518 759 1 16.557152 5.883688 9.621386 0 0 0
1519 760 1 16.577578 6.489301 9.575835 0 0 0
1520 760 1 17.172422 6.010699 10.174165 0 0 0
1521 761 1 16.991105 8.976017 -0.288111 0 0 0
1522 761 1 16.758895 8.523983 0.538111 0 0 0
1523 762 1 16.443512 8.757061 0.596344 0 0 0
1524 762 1 17.306488 8.742939 0.153656 0 0 0
1525 763 1 17.052424 9.196995 0.562219 0 0 0
1526 763 1 16.697576 8.303005 0.687781 0 0 0
1527 764 1 17.084948 8.388051 1.120235 0 0 0
1528 764 1 16.665052 9.111949 0.629765 0 0 0
1529 765 1 17.304886 8.972367 1.093763 0 0 0
1530 765 1 16.445114 8.527633 1.156237 0 0 0
1531 766 1 16.712810 8.741382 1.831996 0 0 0
1532 766 1 17.037190 8.758618 0.918004 0 0 0
1533 767 1 16.414677 8.620131 1.544615 0 0 0
1534 767 1 17.335323 8.879869 1.705385 0 0 0
1535 768 1 16.996733 8.709377 2.342713 0 0 0
1536 768 1 16.753267 8.790623 1.407287 0 0 0
1537 769 1 17.303328 8.662311 2.334931 0 0 0
1538 769 1 16.446672 8.837689 1.915069 0 0 0
1539 770 1 16.570776 9.031301 2.627076 0 0 0
1540 770 1 17.179224 8.468699 2.122924 0 0 0
1541 771 1 17.226918 8.686522 2.297358 0 0 0
1542 771 1 16.523082 8.813478 2.952642 0 0 0
1543 772 1 16.946191 8.704198 2.397445 0 0 0
1544 772 1 16.803809 8.795802 3.352555 0 0 0
1545 773 1 16.630094 9.166554 3.166579 0 0 0
1546 773 1 17.119906 8.333446 3.083421 0 0 0
1547 774 1 17.100288 9.080023 3.649873 0 0 0
1548 774 1 16.649712 8.419977 3.100127 0 0 0
1549 775 1 17.114728 9.017009 3.951284 0 0 0
1550 775 1 16.635272 8.482991 3.298716 0 0 0
1551 776 1 17.238131 8.825270 4.187562 0 0 0
1552 776 1 16.511869 8.674730 3.562438 0 0 0
1553 777 1 16.790933 9.126647 3.831241 0 0 0
1554 777 1 16.959067 8.373353 4.418759 0 0 0
1555 778 1 16.885402 8.656525 3.899207 0 0 0
1556 778 1 16.864598 8.843475 4.850793 0 0 0
1557 779 1 17.227661 8.429108 4.713791 0 0 0
1558 779 1 16.522339 9.070892 4.536209 0 0 0
1559 780 1 17.278956 8.964308 4.713394 0 0 0
1560 780 1 16.471044 8.535692 5.036606 0 0 0
1561 781 1 16.652961 9.138852 4.938673 0 0 0
1562 781 1 17.097039 8.361148 5.311327 0 0 0
1563 782 1 16.684503 9.146640 5.171008 0 0 0
1564 782 1 17.065497 8.353360 5.578992 0 0 0
1565 783 1 16.503442 8.474055 5.480005 0 0 0
1566 783 1 17.246558 9.025945 5.769995 0 0 0
1567 784 1 16.842836 8.372584 5.572101 0 0 0
1568 784 1 16.907164 9.127416 6.177899 0 0 0
1569 785 1 16.846648 8.834064 5.648183 0 0 0
1570 785 1 16.903352 8.665936 6.601817 0 0 0
1571 786 1 17.324057 8.933113 6.368453 0 0 0
1572 786 1 16.425943 8.566887 6.381547 0 0 0
1573 787 1 16.464734 8.709772 6.880516 0 0 0
1574 787 1 17.285266 8.790228 6.369484 0 0 0
1575 788 1 16.512585 9.043058 6.740845 0 0 0
1576 788 1 17.237415 8.456942 7.009155 0 0 0
1577 789 1 16.496658 8.469149 7.239910 0 0 0
1578 789 1 17.253342 9.030851 7.010090 0 0 0
1579 790 1 17.344867 8.709810 7.261708 0 0 0
1580 790 1 16.405133 8.790190 7.488292 0 0 0
1581 791 1 16.848102 8.912941 8.081017 0 0 0
1582 791 1 16.901898 8.587059 7.168983 0 0 0
1583 792 1 17.186318 8.450606 7.654389 0 0 0
1584 792 1 16.563682 9.049394 8.095611 0 0 0
1585 793 1 16.611297 9.154634 8.080755 0 0 0
1586 793 1 17.138703 8.345366 8.169245 0 0 0
1587 794 1 17.301211 8.565026 8.235883 0 0 0
1588 794 1 16.448789 8.934974 8.514117 0 0 0
1589 795 1 17.137230 8.520397 8.962258 0 0 0
1590 795 1 16.612770 8.979603 8.287742 0 0 0
1591 796 1 16.862982 9.194583 9.068459 0 0 0
1592 796 1 16.887018 8.305417 8.681541 0 0 0
1593 797 1 16.547276 9.100978 9.193093 0 0 0
1594 797 1 17.202724 8.399022 9.056907 0 0 0
1595 798 1 17.226517 8.881949 9.067997 0 0 0
1596 798 1 16.523483 8.618051 9.682003 0 0 0
1597 799 1 17.112399 9.085833 9.882066 0 0 0
1598 799 1 16.637601 8.414167 9.367934 0 0 0
1599 800 1 16.836925 9.230403 9.820334 0 0 0
1600 800 1 16.913075 8.269597 9.929666 0 0 0
1601 801 1 20.995054 1.304093 0.433802 0 0 0
1602 801 1 20.254946 1.195907 -0.183802 0 0 0
1603 802 1 20.776309 1.524825 0.744868 0 0 0
1604 802 1 20.473691 0.975175 0.005132 0 0 0
1605 803 1 20.743822 1.702243 0.496228 0 0 0
1606 803 1 20.506178 0.797757 0.753772 0 0 0
1607 804 1 20.728137 1.686579 0.690647 0 0 0
1608 804 1 20.521863 0.813421 1.059353 0 0 0
1609 805 1 21.039284 1.480401 1.227515 0 0 0
1610 805 1 20.210716 1.019599 1.022485 0 0 0
1611 806 1 20.230411 1.223075 1.655713 0 0 0
1612 806 1 21.019589 1.276925 1.094287 0 0 0
1613 807 1 21.095752 1.180555 1.531218 0 0 0
1614 807 1 20.154248 1.319445 1.718782 0 0 0
1615 808 1 20.899137 1.343167 2.264093 0 0 0
1616 808 1 20.350863 1.156833 1.485907 0 0 0
1617 809 1 20.720658 1.034843 1.700993 0 0 0
1618 809 1 20.529342 1.465157 2.549007 0 0 0
1619 810 1 20.903668 1.239535 2.771812 0 0 0
1620 810 1 20.346332 1.260465 1.978188 0 0 0
1621 811 1 20.558088 1.730118 2.609675 0 0 0
1622 811 1 20.691912 0.769882 2.640325 0 0 0
1623 812 1 20.237151 1.044401 2.668779 0 0 0
1624 812 1 21.012849 1.455599 3.081221 0 0 0
1625 813 1 21.063756 1.433230 3.029372 0 0 0
1626 813 1 20.186244 1.066770 3.220628 0 0 0
1627 814 1 20.254709 1.510603 3.548769 0 0 0
1628 814 1 20.995291 0.989397 3.201231 0 0 0
1629 815 1 20.874067 1.027106 3.273562 0 0 0
1630 815 1 20.375933 1.472894 3.976438 0 0 0
1631 816 1 20.373521 1.421794 4.252452 0 0 0
1632 816 1 20.876479 1.078206 3.497548 0 0 0
1633 817 1 20.378091 1.135244 4.526363 0 0 0
1634 817 1 20.871909 1.364756 3.723637 0 0 0
1635 818 1 20.287079 1.187454 4.717232 0 0 0
1636 818 1 20.962921 1.312546 4.032768 0 0 0
1637 819 1 20.998223 1.180531 4.323166 0 0 0
1638 819 1 20.251777 1.319469 4.926834 0 0 0
1639 820 1 20.287662 1.592897 4.812955 0 0 0
1640 820 1 20.962338 0.907103 4.937045 0 0 0
1641 821 1 20.872942 1.328540 4.715633 0 0 0
1642 821 1 20.377058 1.171460 5.534367 0 0 0
1643 822 1 21.079520 1.214201 5.540392 0 0 0
1644 822 1 20.170480 1.285799 5.209608 0 0 0
1645 823 1 20.495841 1.218094 6.091396 0 0 0
1646 823 1 20.754159 1.281906 5.158604 0 0 0
1647 824 1 20.444302 1.233826 5.425209 0 0 0
1648 824 1 20.805698 1.266174 6.324791 0 0 0
1649 825 1 21.003466 1.063651 6.364296 0 0 0
1650 825 1 20.246534 1.436349 5.885704 0 0 0
1651 826 1 20.210257 1.018672 6.276510 0 0 0
1652 826 1 21.039743 1.481328 6.473490 0 0 0
1653 827 1 20.176481 1.091969 6.529699 0 0 0
1654 827 1 21.073519 1.408031 6.720301 0 0 0
1655 828 1 21.073673 1.363995 6.730354 0 0 0
1656 828 1 20.176327 1.136005 7.019646 0 0 0
1657 829 1 20.319088 1.613119 7.223930 0 0 0
1658 829 1 20.930912 0.886881 7.026070 0 0 0
1659 830 1 20.854536 1.184658 6.952782 0 0 0
1660 830 1 20.395464 1.315342 7.797218 0 0 0
1661 831 1 20.654698 1.493781 7.206773 0 0 0
1662 831 1 20.595302 1.006219 8.043227 0 0 0
1663 832 1 20.274123 1.568853 7.977192 0 0 0
1664 832 1 20.975877 0.931147 7.772808 0 0 0
1665 833 1 20.748754 1.644932 8.377861 0 0 0
1666 833 1 20.501246 0.855068 7.872139 0 0 0
1667 834 1 20.520045 1.568438 8.725438 0 0 0
1668 834 1 20.729955 0.931562 8.024562 0 0 0
1669 835 1 20.403610 1.060360 9.012619 0 0 0
1670 835 1 20.846390 1.439640 8.237381 0 0 0
1671 836 1 20.442688 0.935272 9.195833 0 0 0
1672 836 1 20.807312 1.564728 8.554167 0 0 0
1673 837 1 21.053669 1.037007 9.046886 0 0 0
1674 837 1 20.196331 1.462993 9.203114 0 0 0
1675 838 1 20.764082 1.658617 9.596164 0 0 0
1676 838 1 20.485918 0.841383 9.153836 0 0 0
1677 839 1 20.747281 1.716374 9.677610 0 0 0
1678 839 1 20.502719 0.783626 9.572390 0 0 0
1679 840 1 20.379545 0.882574 9.675061 0 0 0
1680 840 1 20.870455 1.617426 10.074939 0 0 0
1681 841 1 20.652155 4.003370 -0.287663 0 0 0
1682 841 1 20.597845 3.496630 0.537663 0 0 0
1683 842 1 20.660723 3.873037 0.842772 0 0 0
1684 842 1 20.589277 3.626963 -0.092772 0 0 0
1685 843 1 20.611541 3.315962 0.409002 0 0 0
1686 843 1 20.638459 4.184038 0.840998 0 0 0
1687 844 1 21.027987 3.725363 1.143737 0 0 0
1688 844 1 20.222013 3.774637 0.606263 0 0 0
1689 845 1 21.058516 3.773889 0.908856 0 0 0
1690 845 1 20.191484 3.726111 1.341144 0 0 0
1691 846 1 21.099449 3.764349 1.275415 0 0 0
1692 846 1 20.150551 3.735651 1.474585 0 0 0
1693 847 1 20.708100 3.318360 1.829955 0 0 0
1694 847 1 20.541900 4.181640 1.420045 0 0 0
1695 848 1 20.837893 4.185523 1.860125 0 0 0
1696 848 1 20.412107 3.314477 1.889875 0 0 0
1697 849 1 20.413108 3.798211 2.558593 0 0 0
1698 849 1 20.836892 3.701789 1.691407 0 0 0
1699 850 1 20.516033 3.637125 1.916077 0 0 0
1700 850 1 20.733967 3.862875 2.833923 0 0 0
1701 851 1 21.023538 3.688067 2.894364 0 0 0
1702 851 1 20.226462 3.811933 2.355636 0 0 0
1703 852 1 20.544639 3.771493 2.397187 0 0 0
1704 852 1 20.705361 3.728507 3.352813 0 0 0
1705 853 1 20.225949 4.019951 3.180764 0 0 0
1706 853 1 21.024051 3.480049 3.069236 0 0 0
1707 854 1 20.565849 4.125532 3.073832 0 0 0
1708 854 1 20.684151 3.374468 3.676168 0 0 0
1709 855 1 21.039326 3.699777 3.872056 0 0 0
1710 855 1 20.210674 3.800223 3.377944 0 0 0
1711 856 1 20.536961 3.791429 3.399860 0 0 0
1712 856 1 20.713039 3.708571 4.350140 0 0 0
1713 857 1 20.256634 3.707592 3.812377 0 0 0
1714 857 1 20.993366 3.792408 4.437623 0 0 0
1715 858 1 20.655143 4.033787 3.982851 0 0 0
1716 858 1 20.594857 3.466213 4.767149 0 0 0
1717 859 1 21.074658 3.778759 4.804460 0 0 0
1718 859 1 20.175342 3.721241 4.445540 0 0 0
1719 860 1 20.820558 3.326872 4.741041 0 0 0
1720 860 1 20.429442 4.173128 5.008959 0 0 0
1721 861 1 20.834844 4.182283 5.059259 0 0 0
1722 861 1 20.415156 3.317717 5.190741 0 0 0
1723 862 1 20.283502 3.412670 5.305624 0 0 0
1724 862 1 20.966498 4.087330 5.444376 0 0 0
1725 863 1 20.312053 3.379767 5.610287 0 0 0
1726 863 1 20.937947 4.120233 5.639713 0 0 0
1727 864 1 20.194488 3.595617 5.713600 0 0 0
1728 864 1 21.055512 3.904383 6.036400 0 0 0
1729 865 1 20.659536 3.825244 6.602881 0 0 0
1730 865 1 20.590464 3.674756 5.647119 0 0 0
1731 866 1 20.352491 3.707610 6.773957 0 0 0
1732 866 1 20.897509 3.792390 5.976043 0 0 0
1733 867 1 21.099742 3.717607 6.718786 0 0 0
1734 867 1 20.150258 3.782393 6.531214 0 0 0
1735 868 1 20.741305 3.695827 6.407278 0 0 0
1736 868 1 20.508695 3.804173 7.342722 0 0 0
1737 869 1 20.964110 3.861363 7.453371 0 0 0
1738 869 1 20.285890 3.638637 6.796629 0 0 0
1739 870 1 20.952617 3.474340 7.147176 0 0 0
1740 870 1 20.297383 4.025660 7.602824 0 0 0
1741 871 1 21.070583 3.678094 7.447488 0 0 0
1742 871 1 20.179417 3.821906 7.802512 0 0 0
1743 872 1 21.063486 3.659214 7.688685 0 0 0
1744 872 1 20.186514 3.840786 8.061315 0 0 0
1745 873 1 20.323122 3.706112 7.747947 0 0 0
1746 873 1 20.926878 3.793888 8.502053 0 0 0
1747 874 1 20.396570 4.070642 8.091745 0 0 0
1748 874 1 20.853430 3.429358 8.658255 0 0 0
1749 875 1 20.542216 4.032573 8.239612 0 0 0
1750 875 1 20.707784 3.467427 9.010388 0 0 0
1751 876 1 21.068155 3.608838 8.737478 0 0 0
1752 876 1 20.181845 3.891162 9.012522 0 0 0
1753 877 1 21.038283 3.697336 8.876708 0 0 0
1754 877 1 20.211717 3.802664 9.373292 0 0 0
1755 878 1 20.219669 3.508006 9.486223 0 0 0
1756 878 1 21.030331 3.991994 9.263777 0 0 0
1757 879 1 20.981945 3.779970 9.298018 0 0 0
1758 879 1 20.268055 3.720030 9.951982 0 0 0
1759 880 1 20.324608 3.707671 10.253415 0 0 0
1760 880 1 20.925392 3.792329 9.496585 0 0 0
1761 881 1 20.799843 5.857212 0.349438 0 0 0
1762 881 1 20.450157 6.642788 -0.099438 0 0 0
1763 882 1 20.520557 6.260061 0.848514 0 0 0
1764 882 1 20.729443 6.239939 -0.098514 0 0 0
1765 883 1 20.201838 6.239692 0.388246 0 0 0
1766 883 1 21.048162 6.260308 0.861754 0 0 0
1767 884 1 20.477739 6.308724 0.416644 0 0 0
1768 884 1 20.772261 6.191276 1.333356 0 0 0
1769 885 1 20.319644 6.611835 1.230158 0 0 0
1770 885 1 20.930356 5.888165 1.019842 0 0 0
1771 886 1 20.315769 5.879399 1.422500 0 0 0
1772 886 1 20.934231 6.620601 1.327500 0 0 0
1773 887 1 20.718788 6.521501 2.015789 0 0 0
1774 887 1 20.531212 5.978499 1.234211 0 0 0
1775 888 1 20.731552 5.918197 1.537690 0 0 0
1776 888 1 20.518448 6.581803 2.212310 0 0 0
1777 889 1 20.898363 6.397515 2.497474 0 0 0
1778 889 1 20.351637 6.102485 1.752526 0 0 0
1779 890 1 20.287341 6.132361 2.702677 0 0 0
1780 890 1 20.962659 6.367639 2.047323 0 0 0
1781 891 1 21.088040 6.383973 2.571422 0 0 0
1782 891 1 20.161960 6.116027 2.678578 0 0 0
1783 892 1 21.103303 6.317188 2.830994 0 0 0
1784 892 1 20.146697 6.182812 2.919006 0 0 0
1785 893 1 20.300765 6.247527 2.764319 0 0 0
1786 893 1 20.949235 6.252473 3.485681 0 0 0
1787 894 1 20.467242 5.818492 3.530365 0 0 0
1788 894 1 20.782758 6.681508 3.219635 0 0 0
1789 895 1 20.910583 6.327064 4.009355 0 0 0
1790 895 1 20.339417 6.172936 3.240645 0 0 0
1791 896 1 20.404791 6.540786 3.555349 0 0 0
1792 896 1 20.845209 5.959214 4.194651 0 0 0
1793 897 1 20.988655 5.948438 4.234730 0 0 0
1794 897 1 20.261345 6.551562 4.015270 0 0 0
1795 898 1 20.521089 5.911342 4.043733 0 0 0
1796 898 1 20.728911 6.588658 4.706267 0 0 0
1797 899 1 20.887684 6.622691 4.459702 0 0 0
1798 899 1 20.362316 5.877309 4.790298 0 0 0
1799 900 1 20.311748 5.880747 4.902394 0 0 0
1800 900 1 20.938252 6.619253 4.847606 0 0 0
1801 901 1 20.203513 6.123739 4.920960 0 0 0
1802 901 1 21.046487 6.376261 5.329040 0 0 0
1803 902 1 20.797588 6.310288 5.824226 0 0 0
1804 902 1 20.452412 6.189712 4.925774 0 0 0
1805 903 1 20.639851 6.323216 6.104212 0 0 0
1806 903 1 20.610149 6.176784 5.145788 0 0 0
1807 904 1 20.520221 5.793167 5.999700 0 0 0
1808 904 1 20.729779 6.706833 5.750300 0 0 0
1809 905 1 21.008034 5.967783 6.030852 0 0 0
1810 905 1 20.241966 6.532217 6.219148 0 0 0
1811 906 1 20.682682 5.828888 6.141413 0 0 0
1812 906 1 20.567318 6.671112 6.608587 0 0 0
1813 907 1 20.566767 5.775898 6.709032 0 0 0
1814 907 1 20.683233 6.724102 6.540968 0 0 0
1815 908 1 20.286990 6.488895 7.127791 0 0 0
1816 908 1 20.963010 6.011105 6.622209 0 0 0
1817 909 1 20.825121 6.069268 7.528128 0 0 0
1818 909 1 20.424879 6.430732 6.721872 0 0 0
1819 910 1 20.587856 6.470743 7.805253 0 0 0
1820 910 1 20.662144 6.029257 6.944747 0 0 0
1821 911 1 20.555695 6.450842 7.189013 0 0 0
1822 911 1 20.694305 6.049158 8.060987 0 0 0
1823 912 1 20.513102 6.666227 7.652606 0 0 0
1824 912 1 20.736898 5.833773 8.097394 0 0 0
1825 913 1 20.165659 6.101944 8.173064 0 0 0
1826 913 1 21.084341 6.398056 8.076936 0 0 0
1827 914 1 21.036780 6.113689 8.591984 0 0 0
1828 914 1 20.213220 6.386311 8.158016 0 0 0
1829 915 1 21.099564 6.309571 8.705404 0 0 0
1830 915 1 20.150436 6.190429 8.544596 0 0 0
1831 916 1 20.938926 6.265798 9.244359 0 0 0
1832 916 1 20.311074 6.234202 8.505641 0 0 0
1833 917 1 20.677055 5.917068 8.776186 0 0 0
1834 917 1 20.572945 6.582932 9.473814 0 0 0
1835 918 1 20.609394 6.461776 8.938958 0 0 0
1836 918 1 20.640606 6.038224 9.811042 0 0 0
1837 919 1 20.729215 5.907443 9.297863 0 0 0
1838 919 1 20.520785 6.592557 9.952137 0 0 0
1839 920 1 21.099041 6.216576 9.778085 0 0 0
1840 920 1 20.150959 6.283424 9.971915 0 0 0
1841 921 1 20.896424 8.872740 0.507739 0 0 0
1842 921 1 20.353576 8.627260 -0.257739 0 0 0
1843 922 1 20.180294 8.556563 0.381592 0 0 0
1844 922 1 21.069706 8.943437 0.368408 0 0 0
1845 923 1 20.700922 8.313519 0.427655 0 0 0
1846 923 1 20.549078 9.186481 0.822345 0 0 0
1847 924 1 20.804528 9.109884 0.603932 0 0 0
1848 924 1 20.445472 8.390116 1.146068 0 0 0
1849 925 1 20.498354 8.297826 1.246346 0 0 0
1850 925 1 20.751646 9.202174 1.003654 0 0 0
1851 926 1 20.149069 8.677216 1.316542 0 0 0
1852 926 1 21.100931 8.822784 1.433458 0 0 0
1853 927 1 20.736700 8.858950 1.165785 0 0 0
1854 927 1 20.513300 8.641050 2.084215 0 0 0
1855 928 1 20.815353 8.405399 2.158268 0 0 0
1856 928 1 20.434647 9.094601 1.591732 0 0 0
1857 929 1 20.228754 8.590980 2.355058 0 0 0
1858 929 1 21.021246 8.909020 1.894942 0 0 0
1859 930 1 20.768671 8.377183 2.649938 0 0 0
1860 930 1 20.481329 9.122817 2.100062 0 0 0
1861 931 1 20.950958 8.499592 2.882434 0 0 0
1862 931 1 20.299042 9.000408 2.367566 0 0 0
1863 932 1 20.447483 8.314136 2.992196 0 0 0
1864 932 1 20.802517 9.185864 2.757804 0 0 0
1865 933 1 20.669597 9.203932 3.289868 0 0 0
1866 933 1 20.580403 8.296068 2.960132 0 0 0
1867 934 1 21.044246 8.516749 3.446076 0 0 0
1868 934 1 20.205754 8.983251 3.303924 0 0 0
1869 935 1 20.653507 8.800693 3.143500 0 0 0
1870 935 1 20.596493 8.699307 4.106500 0 0 0
1871 936 1 20.827851 8.556742 4.270889 0 0 0
1872 936 1 20.422149 8.943258 3.479111 0 0 0
1873 937 1 20.860143 8.865624 3.716878 0 0 0
1874 937 1 20.389857 8.634376 4.533122 0 0 0
1875 938 1 20.211121 9.002842 4.374664 0 0 0
1876 938 1 21.038879 8.497158 4.375336 0 0 0
1877 939 1 20.356770 8.547270 4.275460 0 0 0
1878 939 1 20.893230 8.952730 4.974540 0 0 0
1879 940 1 20.742495 8.849352 4.415055 0 0 0
1880 940 1 20.507505 8.650648 5.334945 0 0 0
1881 941 1 20.592409 8.431964 5.489714 0 0 0
1882 941 1 20.657591 9.068036 4.760286 0 0 0
1883 942 1 20.190886 8.907364 5.226654 0 0 0
1884 942 1 21.059114 8.592636 5.523346 0 0 0
1885 943 1 20.925234 8.384344 5.731680 0 0 0
1886 943 1 20.324766 9.115656 5.518320 0 0 0
1887 944 1 20.184161 8.626548 6.035143 0 0 0
1888 944 1 21.065839 8.873452 5.714857 0 0 0
1889 945 1 20.493978 8.694612 5.661329 0 0 0
1890 945 1 20.756022 8.805388 6.588671 0 0 0
1891 946 1 20.978829 9.072311 6.296606 0 0 0
1892 946 1 20.271171 8.427689 6.453394 0 0 0
1893 947 1 20.784682 8.827236 6.173601 0 0 0
1894 947 1 20.465318 8.672764 7.076399 0 0 0
1895 948 1 20.359137 8.522438 6.539206 0 0 0
1896 948 1 20.890863 8.977562 7.210794 0 0 0
1897 949 1 20.670608 9.156159 7.386113 0 0 0
1898 949 1 20.579392 8.343841 6.863887 0 0 0
1899 950 1 20.633988 9.219869 7.494865 0 0 0
1900 950 1 20.616012 8.280131 7.255135 0 0 0
1901 951 1 20.864146 8.751450 8.046938 0 0 0
1902 951 1 20.385854 8.748550 7.203062 0 0 0
1903 952 1 20.679698 8.269034 7.905077 0 0 0
1904 952 1 20.570302 9.230966 7.844923 0 0 0
1905 953 1 20.220562 8.498836 8.032420 0 0 0
1906 953 1 21.029438 9.001164 8.217580 0 0 0
1907 954 1 20.574929 8.708700 7.894363 0 0 0
1908 954 1 20.675071 8.791300 8.855637 0 0 0
1909 955 1 21.009984 8.458289 8.668787 0 0 0
1910 955 1 20.240016 9.041711 8.581213 0 0 0
1911 956 1 20.491960 8.283607 8.873369 0 0 0
1912 956 1 20.758040 9.216393 8.876631 0 0 0
1913 957 1 20.400700 8.500344 9.475123 0 0 0
1914 957 1 20.849300 8.999656 8.774877 0 0 0
1915 958 1 20.144938 8.680985 9.376440 0 0 0
1916 958 1 21.105062 8.819015 9.373560 0 0 0
1917 959 1 20.595820 8.495688 9.213055 0 0 0
1918 959 1 20.654180 9.004312 10.036945 0 0 0
1919 960 1 20.991564 8.534850 9.641406 0 0 0
1920 960 1 20.258436 8.965150 10.108594 0 0 0
1921 961 1 24.046895 1.100496 -0.199377 0 0 0
1922 961 1 24.703105 1.399504 0.449377 0 0 0
1923 962 1 23.970628 1.516804 0.397892 0 0 0
1924 962 1 24.779372 0.983196 0.352108 0 0 0
1925 963 1 24.381924 1.149637 0.150548 0 0 0
1926 963 1 24.368076 1.350363 1.099452 0 0 0
1927 964 1 24.478716 0.789132 0.984858 0 0 0
1928 964 1 24.271284 1.710868 0.765142 0 0 0
1929 965 1 24.570095 1.254871 1.569004 0 0 0
1930 965 1 24.179905 1.245129 0.680996 0 0 0
1931 966 1 24.784414 1.449646 1.208426 0 0 0
1932 966 1 23.965586 1.050354 1.541574 0 0 0
1933 967 1 24.139102 0.828158 1.665329 0 0 0
1934 967 1 24.610898 1.671842 1.584671 0 0 0
1935 968 1 23.943762 1.250344 1.653058 0 0 0
1936 968 1 24.806238 1.249656 2.096942 0 0 0
1937 969 1 24.128977 0.942917 1.841455 0 0 0
1938 969 1 24.621023 1.557083 2.408545 0 0 0
1939 970 1 24.818753 1.098181 2.251472 0 0 0
1940 970 1 23.931247 1.401819 2.498528 0 0 0
1941 971 1 24.404316 1.169692 3.102406 0 0 0
1942 971 1 24.345684 1.330308 2.147594 0 0 0
1943 972 1 24.830868 1.086556 2.848631 0 0 0
1944 972 1 23.919132 1.413444 2.901369 0 0 0
1945 973 1 24.623522 0.962178 2.823968 0 0 0
1946 973 1 24.126478 1.537822 3.426032 0 0 0
1947 974 1 24.767373 0.979253 3.285754 0 0 0
1948 974 1 23.982627 1.520747 3.464246 0 0 0
1949 975 1 24.013242 1.259323 3.302092 0 0 0
1950 975 1 24.736758 1.240677 3.947908 0 0 0
1951 976 1 24.735625 0.926191 3.892952 0 0 0
1952 976 1 24.014375 1.573809 3.857048 0 0 0
1953 977 1 24.609320 1.613322 4.344810 0 0 0
1954 977 1 24.140680 0.886678 3.905190 0 0 0
1955 978 1 24.841590 1.297039 4.251281 0 0 0
1956 978 1 23.908410 1.202961 4.498719 0 0 0
1957 979 1 24.034932 0.979855 4.409129 0 0 0
1958 979 1 24.715068 1.520145 4.840871 0 0 0
1959 980 1 24.118834 1.344931 4.474261 0 0 0
1960 980 1 24.631166 1.155069 5.275739 0 0 0
1961 981 1 24.608210 1.319435 5.544543 0 0 0
1962 981 1 24.141790 1.180565 4.705457 0 0 0
1963 982 1 24.330989 1.580952 5.023207 0 0 0
1964 982 1 24.419011 0.919048 5.726793 0 0 0
1965 983 1 24.387847 0.820229 5.849402 0 0 0
1966 983 1 24.362153 1.679771 5.400598 0 0 0
1967 984 1 23.978707 1.436571 5.666751 0 0 0
1968 984 1 24.771293 1.063429 6.083249 0 0 0
1969 985 1 24.490047 1.643871 5.866437 0 0 0
1970 985 1 24.259953 0.856129 6.383563 0 0 0
1971 986 1 24.847842 1.289596 6.475389 0 0 0
1972 986 1 23.902158 1.210404 6.274611 0 0 0
1973 987 1 24.178166 1.593880 6.345307 0 0 0
1974 987 1 24.571834 0.906120 6.904693 0 0 0
1975 988 1 24.073340 1.467949 7.186006 0 0 0
1976 988 1 24.676660 1.032051 6.563994 0 0 0
1977 989 1 24.823762 1.074905 7.181388 0 0 0
1978 989 1 23.926238 1.425095 7.068612 0 0 0
1979 990 1 24.520769 1.711641 7.345601 0 0 0
1980 990 1 24.229231 0.788359 7.404399 0 0 0
1981 991 1 24.821736 1.219032 7.811260 0 0 0
1982 991 1 23.928264 1.280968 7.438740 0 0 0
1983 992 1 24.568438 1.270738 7.430729 0 0 0
1984 992 1 24.181562 1.229262 8.319271 0 0 0
1985 993 1 24.074111 0.872455 8.171372 0 0 0
1986 993 1 24.675889 1.627545 8.078628 0 0 0
1987 994 1 24.063745 1.619181 8.420279 0 0 0
1988 994 1 24.686255 0.880819 8.329721 0 0 0
1989 995 1 23.949633 1.027119 8.692907 0 0 0
1990 995 1 24.800367 1.472881 8.557093 0 0 0
1991 996 1 24.178395 1.193884 8.435202 0 0 0
1992 996 1 24.571605 1.306116 9.314798 0 0 0
1993 997 1 24.099572 0.856452 9.191965 0 0 0
1994 997 1 24.650428 1.643548 9.058035 0 0 0
1995 998 1 24.638993 1.020783 9.711144 0 0 0
1996 998 1 24.111007 1.479217 9.038856 0 0 0
1997 999 1 24.001577 1.459067 9.853191 0 0 0
1998 999 1 24.748423 1.040933 9.396809 0 0 0
1999 1000 1 23.992196 1.206649 10.169629 0 0 0
2000 1000 1 24.757804 1.293351 9.580371 0 0 0
2001 1001 1 24.307035 3.715378 0.603965 0 0 0
2002 1001 1 24.442965 3.784622 -0.353965 0 0 0
2003 1002 1 24.509859 4.162287 0.591926 0 0 0
2004 1002 1 24.240141 3.337713 0.158074 0 0 0
2005 1003 1 24.217675 3.964601 0.219512 0 0 0
2006 1003 1 24.532325 3.535399 1.030488 0 0 0
2007 1004 1 24.021908 4.056028 1.004993 0 0 0
2008 1004 1 24.728092 3.443972 0.745007 0 0 0
2009 1005 1 24.277422 4.031618 1.507616 0 0 0
2010 1005 1 24.472578 3.468382 0.742384 0 0 0
2011 1006 1 24.857592 3.714578 1.342204 0 0 0
2012 1006 1 23.892408 3.785422 1.407796 0 0 0
2013 1007 1 24.277290 3.275139 1.638598 0 0 0
2014 1007 1 24.472710 4.224861 1.611402 0 0 0
2015 1008 1 24.806783 3.532320 1.912470 0 0 0
2016 1008 1 23.943217 3.967680 1.837530 0 0 0
2017 1009 1 24.371409 3.365798 2.420975 0 0 0
2018 1009 1 24.378591 4.134202 1.829025 0 0 0
2019 1010 1 24.680405 3.374963 2.338947 0 0 0
2020 1010 1 24.069595 4.125037 2.411053 0 0 0
2021 1011 1 24.813838 3.776770 2.420233 0 0 0
2022 1011 1 23.936162 3.723230 2.829767 0 0 0
2023 1012 1 24.529342 3.357942 2.634804 0 0 0
2024 1012 1 24.220658 4.142058 3.115196 0 0 0
2025 1013 1 24.817409 3.634468 3.286714 0 0 0
2026 1013 1 23.932591 3.865532 2.963286 0 0 0
2027 1014 1 24.482009 3.366539 3.097994 0 0 0
2028 1014 1 24.267991 4.133461 3.652006 0 0 0
2029 1015 1 24.060843 3.427052 3.804541 0 0 0
2030 1015 1 24.689157 4.072948 3.445459 0 0 0
2031 1016 1 24.139423 4.048439 3.573898 0 0 0
2032 1016 1 24.610577 3.451561 4.176102 0 0 0
2033 1017 1 24.203376 4.041232 4.472785 0 0 0
2034 1017 1 24.546624 3.458768 3.777215 0 0 0
2035 1018 1 24.669027 3.682153 3.995303 0 0 0
2036 1018 1 24.080973 3.817847 4.754697 0 0 0
2037 1019 1 24.088642 3.600705 4.986849 0 0 0
2038 1019 1 24.661358 3.899295 4.263151 0 0 0
2039 1020 1 23.896463 3.695767 4.932325 0 0 0
2040 1020 1 24.853537 3.804233 4.817675 0 0 0
2041 1021 1 24.060521 3.393550 5.028712 0 0 0
2042 1021 1 24.689479 4.106450 5.221288 0 0 0
2043 1022 1 24.079725 3.425079 5.168931 0 0 0
2044 1022 1 24.670275 4.074921 5.581069 0 0 0
2045 1023 1 24.609877 3.823347 6.042945 0 0 0
2046 1023 1 24.140123 3.676653 5.207055 0 0 0
2047 1024 1 24.652889 3.442326 5.623327 0 0 0
2048 1024 1 24.097111 4.057674 6.126673 0 0 0
2049 1025 1 23.914684 3.835971 6.251266 0 0 0
2050 1025 1 24.835316 3.664029 5.998734 0 0 0
2051 1026 1 24.539834 4.198416 6.291465 0 0 0
2052 1026 1 24.210166 3.301584 6.458535 0 0 0
2053 1027 1 23.937898 3.818448 6.823701 0 0 0
2054 1027 1 24.812102 3.681552 6.426299 0 0 0
2055 1028 1 24.832730 3.891501 6.799595 0 0 0
2056 1028 1 23.917270 3.608499 6.950405 0 0 0
2057 1029 1 24.380465 3.536709 6.689452 0 0 0
2058 1029 1 24.369535 3.963291 7.560548 0 0 0
2059 1030 1 24.015885 3.445347 7.490965 0 0 0
2060 1030 1 24.734115 4.054653 7.259035 0 0 0
2061 1031 1 24.631604 3.703075 8.033873 0 0 0
2062 1031 1 24.118396 3.796925 7.216127 0 0 0
2063 1032 1 24.102580 4.004562 7.564822 0 0 0
2064 1032 1 24.647420 3.495438 8.185178 0 0 0
2065 1033 1 24.272222 3.334626 7.896688 0 0 0
2066 1033 1 24.477778 4.165374 8.353312 0 0 0
2067 1034 1 24.194178 3.437928 8.699252 0 0 0
2068 1034 1 24.555822 4.062072 8.050748 0 0 0
2069 1035 1 24.385384 3.266081 8.655651 0 0 0
2070 1035 1 24.364616 4.233919 8.594349 0 0 0
2071 1036 1 24.119770 3.375617 9.047975 0 0 0
2072 1036 1 24.630230 4.124383 8.702025 0 0 0
2073 1037 1 23.930412 3.886372 8.987271 0 0 0
2074 1037 1 24.819588 3.613628 9.262729 0 0 0
2075 1038 1 24.193639 4.179879 9.507429 0 0 0
2076 1038 1 24.556361 3.320121 9.242571 0 0 0
2077 1039 1 24.809459 3.604443 9.784008 0 0 0
2078 1039 1 23.940541 3.895557 9.465992 0 0 0
2079 1040 1 23.903088 3.794521 9.772325 0 0 0
2080 1040 1 24.846912 3.705479 9.977675 0 0 0
2081 1041 1 24.556628 6.407408 0.546259 0 0 0
2082 1041 1 24.193372 6.092592 -0.296259 0 0 0
2083 1042 1 24.805177 6.370504 0.186184 0 0 0
2084 1042 1 23.944823 6.129496 0.563816 0 0 0
2085 1043 1 24.015566 6.380998 0.923113 0 0 0
2086 1043 1 24.734434 6.119002 0.326887 0 0 0
2087 1044 1 24.276607 6.223955 0.400800 0 0 0
2088 1044 1 24.473393 6.276045 1.349200 0 0 0
2089 1045 1 24.497280 6.389623 1.573082 0 0 0
2090 1045 1 24.252720 6.110377 0.676918 0 0 0
2091 1046 1 24.382684 6.561607 1.746573 0 0 0
2092 1046 1 24.367316 5.938393 1.003427 0 0 0
2093 1047 1 24.099401 6.551692 1.886250 0 0 0
2094 1047 1 24.650599 5.948308 1.363750 0 0 0
2095 1048 1 24.290720 6.726490 1.842155 0 0 0
2096 1048 1 24.459280 5.773510 1.907845 0 0 0
2097 1049 1 23.985083 6.110480 2.377435 0 0 0
2098 1049 1 24.764917 6.389520 1.872565 0 0 0
2099 1050 1 24.168613 6.595538 2.104384 0 0 0
2100 1050 1 24.581387 5.904462 2.645616 0 0 0
2101 1051 1 24.517335 6.327396 3.082139 0 0 0
2102 1051 1 24.232665 6.172604 2.167861 0 0 0
2103 1052 1 24.243746 6.274288 2.408730 0 0 0
2104 1052 1 24.506254 6.225712 3.341270 0 0 0
2105 1053 1 24.063580 6.466354 2.822621 0 0 0
2106 1053 1 24.686420 6.033646 3.427379 0 0 0
2107 1054 1 24.384552 6.664753 3.626224 0 0 0
2108 1054 1 24.365448 5.835247 3.123776 0 0 0
2109 1055 1 24.450507 6.377879 3.163296 0 0 0
2110 1055 1 24.299493 6.122121 4.086704 0 0 0
2111 1056 1 24.534983 6.392501 3.439886 0 0 0
2112 1056 1 24.215017 6.107499 4.310114 0 0 0
2113 1057 1 24.800262 6.383357 3.933706 0 0 0
2114 1057 1 23.949738 6.116643 4.316294 0 0 0
2115 1058 1 24.274931 6.118920 4.831102 0 0 0
2116 1058 1 24.475069 6.381080 3.918898 0 0 0
2117 1059 1 24.817429 6.088999 4.741448 0 0 0
2118 1059 1 23.932571 6.411001 4.508552 0 0 0
2119 1060 1 23.992874 6.539413 4.801213 0 0 0
2120 1060 1 24.757126 5.960587 4.948787 0 0 0
2121 1061 1 24.516819 6.079539 4.693659 0 0 0
2122 1061 1 24.233181 6.420461 5.556341 0 0 0
2123 1062 1 24.289711 6.359387 5.839742 0 0 0
2124 1062 1 24.460289 6.140613 4.910258 0 0 0
2125 1063 1 24.252953 5.965433 5.998297 0 0 0
2126 1063 1 24.497047 6.534567 5.251703 0 0 0
2127 1064 1 24.714981 6.486585 6.127320 0 0 0
2128 1064 1 24.035019 6.013415 5.622680 0 0 0
2129 1065 1 24.638365 5.869007 6.268903 0 0 0
2130 1065 1 24.111635 6.630993 5.981097 0 0 0
2131 1066 1 24.655141 6.551748 6.118691 0 0 0
2132 1066 1 24.094859 5.948252 6.631309 0 0 0
2133 1067 1 24.091481 5.856726 6.611671 0 0 0
2134 1067 1 24.658519 6.643274 6.638329 0 0 0
2135 1068 1 24.156588 6.658791 6.732132 0 0 0
2136 1068 1 24.593412 5.841209 7.017868 0 0 0
2137 1069 1 24.805511 6.380003 7.306616 0 0 0
2138 1069 1 23.944489 6.119997 6.943384 0 0 0
2139 1070 1 24.622732 6.433409 7.749453 0 0 0
2140 1070 1 24.127268 6.066591 7.000547 0 0 0
2141 1071 1 24.652877 6.409640 7.989039 0 0 0
2142 1071 1 24.097123 6.090360 7.260961 0 0 0
2143 1072 1 24.828404 6.421619 7.889038 0 0 0
2144 1072 1 23.921596 6.078381 7.860962 0 0 0
2145 1073 1 24.457524 6.659396 7.878404 0 0 0
2146 1073 1 24.292476 5.840604 8.371596 0 0 0
2147 1074 1 24.011834 6.358024 8.677765 0 0 0
2148 1074 1 24.738166 6.141976 8.072235 0 0 0
2149 1075 1 24.714811 5.943258 8.464804 0 0 0
2150 1075 1 24.035189 6.556742 8.785196 0 0 0
2151 1076 1 24.105632 6.275714 9.277498 0 0 0
2152 1076 1 24.644368 6.224286 8.472502 0 0 0
2153 1077 1 24.295712 6.338428 9.595233 0 0 0
2154 1077 1 24.454288 6.161572 8.654767 0 0 0
2155 1078 1 24.271768 5.933799 9.727966 0 0 0
2156 1078 1 24.478232 6.566201 9.022034 0 0 0
2157 1079 1 24.306554 5.807325 9.810954 0 0 0
2158 1079 1 24.443446 6.692675 9.439046 0 0 0
2159 1080 1 24.833499 6.092050 9.882413 0 0 0
2160 1080 1 23.916501 6.407950 9.867587 0 0 0
2161 1081 1 24.664937 8.867650 -0.245567 0 0 0
2162 1081 1 24.085063 8.632350 0.495567 0 0 0
2163 1082 1 24.163564 8.848428 0.800243 0 0 0
2164 1082 1 24.586436 8.651572 -0.050243 0 0 0
2165 1083 1 24.388262 8.270840 0.698859 0 0 0
2166 1083 1 24.361738 9.229160 0.551141 0 0 0
2167 1084 1 24.272305 9.137223 0.601620 0 0 0
2168 1084 1 24.477695 8.362777 1.148380 0 0 0
2169 1085 1 24.015746 8.469986 0.958406 0 0 0
2170 1085 1 24.734254 9.030014 1.291594 0 0 0
2171 1086 1 24.373951 8.308282 1.575273 0 0 0
2172 1086 1 24.376049 9.191718 1.174727 0 0 0
2173 1087 1 24.221461 8.805519 1.168307 0 0 0
2174 1087 1 24.528539 8.694481 2.081693 0 0 0
2175 1088 1 24.288867 8.590158 2.324730 0 0 0
2176 1088 1 24.461133 8.909842 1.425270 0 0 0
2177 1089 1 23.891901 8.792683 2.120735 0 0 0
2178 1089 1 24.858099 8.707317 2.129265 0 0 0
2179 1090 1 24.170807 8.378765 2.611040 0 0 0
2180 1090 1 24.579193 9.121235 2.138960 0 0 0
2181 1091 1 24.839101 8.652932 2.522956 0 0 0
2182 1091 1 23.910899 8.847068 2.727044 0 0 0
2183 1092 1 24.850346 8.743540 2.778930 0 0 0
2184 1092 1 23.899654 8.756460 2.971070 0 0 0
2185 1093 1 24.449182 9.199150 3.292292 0 0 0
2186 1093 1 24.300818 8.300850 2.957708 0 0 0
2187 1094 1 24.808637 8.618902 3.201803 0 0 0
2188 1094 1 23.941363 8.881098 3.548197 0 0 0
2189 1095 1 24.030064 9.067833 3.748394 0 0 0
2190 1095 1 24.719936 8.432167 3.501606 0 0 0
2191 1096 1 24.192934 8.999196 3.500863 0 0 0
2192 1096 1 24.557066 8.500804 4.249137 0 0 0
2193 1097 1 24.010734 8.702402 3.808346 0 0 0
2194 1097 1 24.739266 8.797598 4.441654 0 0 0
2195 1098 1 24.181472 8.378374 4.130735 0 0 0
2196 1098 1 24.568528 9.121626 4.619265 0 0 0
2197 1099 1 23.892841 8.779988 4.667991 0 0 0
2198 1099 1 24.857159 8.720012 4.582009 0 0 0
2199 1100 1 24.709013 9.090898 4.788694 0 0 0
2200 1100 1 24.040987 8.409102 4.961306 0 0 0
2201 1101 1 24.832062 8.615364 5.034488 0 0 0
2202 1101 1 23.917938 8.884636 5.215512 0 0 0
2203 1102 1 24.789297 8.783239 5.624956 0 0 0
2204 1102 1 23.960703 8.716761 5.125044 0 0 0
2205 1103 1 24.284940 8.831498 5.155455 0 0 0
2206 1103 1 24.465060 8.668502 6.094545 0 0 0
2207 1104 1 24.641221 9.110510 6.060429 0 0 0
2208 1104 1 24.108779 8.389490 5.689571 0 0 0
2209 1105 1 24.787701 8.934113 5.948917 0 0 0
2210 1105 1 23.962299 8.565887 6.301083 0 0 0
2211 1106 1 24.276679 9.206141 6.507262 0 0 0
2212 1106 1 24.473321 8.293859 6.242738 0 0 0
2213 1107 1 24.761334 8.464458 6.558391 0 0 0
2214 1107 1 23.988666 9.035542 6.691609 0 0 0
2215 1108 1 24.831421 8.714509 7.035140 0 0 0
2216 1108 1 23.918579 8.785491 6.714860 0 0 0
2217 1109 1 24.140908 9.039128 6.813823 0 0 0
2218 1109 1 24.609092 8.460872 7.436177 0 0 0
2219 1110 1 24.193723 8.725355 7.824173 0 0 0
2220 1110 1 24.556277 8.774645 6.925827 0 0 0
2221 1111 1 24.330660 8.390020 7.303016 0 0 0
2222 1111 1 24.419340 9.109980 7.946984 0 0 0
2223 1112 1 24.553652 8.961007 7.476522 0 0 0
2224 1112 1 24.196348 8.538993 8.273478 0 0 0
2225 1113 1 24.265413 9.175213 7.919065 0 0 0
2226 1113 1 24.484587 8.324787 8.330935 0 0 0
2227 1114 1 24.526958 8.417402 8.056390 0 0 0
2228 1114 1 24.223042 9.082598 8.693610 0 0 0
2229 1115 1 24.722407 8.688052 8.292291 0 0 0
2230 1115 1 24.027593 8.811948 8.957709 0 0 0
2231 1116 1 24.225224 9.209381 8.833039 0 0 0
2232 1116 1 24.524776 8.290619 8.916961 0 0 0
2233 1117 1 24.535704 8.556785 9.539810 0 0 0
2234 1117 1 24.214296 8.943215 8.710190 0 0 0
2235 1118 1 24.544376 9.189325 9.491319 0 0 0
2236 1118 1 24.205624 8.310675 9.258681 0 0 0
2237 1119 1 24.637218 8.952228 9.270640 0 0 0
2238 1119 1 24.112782 8.547772 9.979360 0 0 0
2239 1120 1 24.562261 9.196792 9.898129 0 0 0
2240 1120 1 24.187739 8.303208 9.851871 0 0 0
2241 1121 1 28.083521 1.712815 -0.013949 0 0 0
2242 1121 1 28.166479 0.787185 0.263949 0 0 0
2243 1122 1 27.884263 1.188191 -0.041474 0 0 0
2244 1122 1 28.365737 1.311809 0.791474 0 0 0
2245 1123 1 28.222284 0.928998 0.274688 0 0 0
2246 1123 1 28.027716 1.571002 0.975312 0 0 0
2247 1124 1 28.434196 1.496188 0.593905 0 0 0
2248 1124 1 27.815804 1.003812 1.156095 0 0 0
2249 1125 1 27.717047 1.001659 1.040580 0 0 0
2250 1125 1 28.532953 1.498341 1.209420 0 0 0
2251 1126 1 27.665398 1.114804 1.299413 0 0 0
2252 1126 1 28.584602 1.385196 1.450587 0 0 0
2253 1127 1 28.344110 1.474584 1.255165 0 0 0
2254 1127 1 27.905890 1.025416 1.994835 0 0 0
2255 1128 1 27.811542 1.602302 1.761632 0 0 0
2256 1128 1 28.438458 0.897698 1.988368 0 0 0
2257 1129 1 27.862301 1.354174 2.519160 0 0 0
2258 1129 1 28.387699 1.145826 1.730840 0 0 0
2259 1130 1 28.399876 0.883629 2.215498 0 0 0
2260 1130 1 27.850124 1.616371 2.534502 0 0 0
2261 1131 1 28.229939 1.623258 2.916362 0 0 0
2262 1131 1 28.020061 0.876742 2.333638 0 0 0
2263 1132 1 28.221729 1.047883 3.305136 0 0 0
2264 1132 1 28.028271 1.452117 2.444864 0 0 0
2265 1133 1 28.119201 1.036580 3.560481 0 0 0
2266 1133 1 28.130799 1.463420 2.689519 0 0 0
2267 1134 1 27.643145 1.296510 3.345376 0 0 0
2268 1134 1 28.606855 1.203490 3.404624 0 0 0
2269 1135 1 27.679577 1.101830 3.746937 0 0 0
2270 1135 1 28.570423 1.398170 3.503063 0 0 0
2271 1136 1 27.776072 1.346044 3.552123 0 0 0
2272 1136 1 28.473928 1.153956 4.197877 0 0 0
2273 1137 1 27.800596 1.549416 4.325840 0 0 0
2274 1137 1 28.449404 0.950584 3.924160 0 0 0
2275 1138 1 28.021356 1.571632 4.722902 0 0 0
2276 1138 1 28.228644 0.928368 4.027098 0 0 0
2277 1139 1 27.667177 1.257370 4.784903 0 0 0
2278 1139 1 28.582823 1.242630 4.465097 0 0 0
2279 1140 1 27.913301 1.509017 5.226167 0 0 0
2280 1140 1 28.336699 0.990983 4.523833 0 0 0
2281 1141 1 27.796170 1.387738 5.453822 0 0 0
2282 1141 1 28.453830 1.112262 4.796178 0 0 0
2283 1142 1 27.679647 1.135775 5.529396 0 0 0
2284 1142 1 28.570353 1.364225 5.220604 0 0 0
2285 1143 1 28.562573 1.218371 5.831772 0 0 0
2286 1143 1 27.687427 1.281629 5.418228 0 0 0
2287 1144 1 28.122210 1.308302 6.356475 0 0 0
2288 1144 1 28.127790 1.191698 5.393525 0 0 0
2289 1145 1 28.010556 0.918840 6.460351 0 0 0
2290 1145 1 28.239444 1.581160 5.789649 0 0 0
2291 1146 1 27.684701 1.337515 6.191417 0 0 0
2292 1146 1 28.565299 1.162485 6.558583 0 0 0
2293 1147 1 28.408139 1.567206 6.391681 0 0 0
2294 1147 1 27.841861 0.932794 6.858319 0 0 0
2295 1148 1 27.723696 0.981100 6.918279 0 0 0
2296 1148 1 28.526304 1.518900 6.831721 0 0 0
2297 1149 1 27.971687 1.067987 7.547601 0 0 0
2298 1149 1 28.278313 1.432013 6.702399 0 0 0
2299 1150 1 27.670593 1.232988 7.206330 0 0 0
2300 1150 1 28.579407 1.267012 7.543670 0 0 0
2301 1151 1 28.392132 1.209086 8.027730 0 0 0
2302 1151 1 27.857868 1.290914 7.222270 0 0 0
2303 1152 1 28.298613 1.282351 8.326704 0 0 0
2304 1152 1 27.951387 1.217649 7.423296 0 0 0
2305 1153 1 28.481178 1.579183 8.126077 0 0 0
2306 1153 1 27.768822 0.920817 8.123923 0 0 0
2307 1154 1 27.686019 1.090205 8.244669 0 0 0
2308 1154 1 28.563981 1.409795 8.505331 0 0 0
2309 1155 1 28.102164 1.292982 8.142448 0 0 0
2310 1155 1 28.147836 1.207018 9.107552 0 0 0
2311 1156 1 28.404822 1.164254 9.261746 0 0 0
2312 1156 1 27.845178 1.335746 8.488254 0 0 0
2313 1157 1 28.374821 1.451304 8.761282 0 0 0
2314 1157 1 27.875179 1.048696 9.488718 0 0 0
2315 1158 1 27.668479 1.165859 9.234522 0 0 0
2316 1158 1 28.581521 1.334141 9.515478 0 0 0
2317 1159 1 27.672055 1.263525 9.452133 0 0 0
2318 1159 1 28.577945 1.236475 9.797867 0 0 0
2319 1160 1 28.358523 0.852113 9.725409 0 0 0
2320 1160 1 27.891477 1.647887 10.024591 0 0 0
2321 1161 1 28.351557 3.657305 0.543694 0 0 0
2322 1161 1 27.898443 3.842695 -0.293694 0 0 0
2323 1162 1 28.106623 3.862638 0.846381 0 0 0
2324 1162 1 28.143377 3.637362 -0.096381 0 0 0
2325 1163 1 28.600284 3.716263 0.534492 0 0 0
2326 1163 1 27.649716 3.783737 0.715508 0 0 0
2327 1164 1 27.759315 3.447920 0.976228 0 0 0
2328 1164 1 28.490685 4.052080 0.773772 0 0 0
2329 1165 1 27.764584 3.752102 0.800468 0 0 0
2330 1165 1 28.485416 3.747898 1.449532 0 0 0
2331 1166 1 28.109281 3.501832 0.958598 0 0 0
2332 1166 1 28.140719 3.998168 1.791402 0 0 0
2333 1167 1 28.548912 3.554825 1.757025 0 0 0
2334 1167 1 27.701088 3.945175 1.492975 0 0 0
2335 1168 1 27.728241 3.471214 1.865756 0 0 0
2336 1168 1 28.521759 4.028786 1.884244 0 0 0
2337 1169 1 28.009082 3.692465 2.592416 0 0 0
2338 1169 1 28.240918 3.807535 1.657584 0 0 0
2339 1170 1 28.516439 3.490273 2.254409 0 0 0
2340 1170 1 27.733561 4.009727 2.495591 0 0 0
2341 1171 1 27.873427 3.456175 2.917580 0 0 0
2342 1171 1 28.376573 4.043825 2.332420 0 0 0
2343 1172 1 28.437694 3.845054 2.516654 0 0 0
2344 1172 1 27.812306 3.654946 3.233346 0 0 0
2345 1173 1 28.021678 3.296459 3.262297 0 0 0
2346 1173 1 28.228322 4.203541 2.987703 0 0 0
2347 1174 1 27.968452 3.295809 3.441547 0 0 0
2348 1174 1 28.281548 4.204191 3.308453 0 0 0
2349 1175 1 28.504922 3.893748 3.889991 0 0 0
2350 1175 1 27.745078 3.606252 3.360009 0 0 0
2351 1176 1 27.689301 3.562865 3.773156 0 0 0
2352 1176 1 28.560699 3.937135 3.976844 0 0 0
2353 1177 1 27.973444 3.927421 3.699821 0 0 0
2354 1177 1 28.276556 3.572579 4.550179 0 0 0
2355 1178 1 28.338093 3.436012 4.072961 0 0 0
2356 1178 1 27.911907 4.063988 4.677039 0 0 0
2357 1179 1 27.646942 3.831473 4.618067 0 0 0
2358 1179 1 28.603058 3.668527 4.631933 0 0 0
2359 1180 1 28.259096 3.599989 5.316294 0 0 0
2360 1180 1 27.990904 3.900011 4.433706 0 0 0
2361 1181 1 28.385832 4.071290 4.872087 0 0 0
2362 1181 1 27.864168 3.428710 5.377913 0 0 0
2363 1182 1 28.222176 3.648843 5.839273 0 0 0
2364 1182 1 28.027824 3.851157 4.910727 0 0 0
2365 1183 1 27.895811 4.030718 5.302672 0 0 0
2366 1183 1 28.354189 3.469282 5.947328 0 0 0
2367 1184 1 27.917671 3.744191 5.436587 0 0 0
2368 1184 1 28.332329 3.755809 6.313413 0 0 0
2369 1185 1 27.855889 4.095977 6.332615 0 0 0
2370 1185 1 28.394111 3.404023 5.917385 0 0 0
2371 1186 1 27.743485 3.517308 6.563483 0 0 0
2372 1186 1 28.506515 3.982692 6.186517 0 0 0
2373 1187 1 28.606060 3.761883 6.685543 0 0 0
2374 1187 1 27.643940 3.738117 6.564457 0 0 0
2375 1188 1 27.934432 4.059260 7.196352 0 0 0
2376 1188 1 28.315568 3.440740 6.553648 0 0 0
2377 1189 1 27.884604 3.419479 7.386133 0 0 0
2378 1189 1 28.365396 4.080521 6.863867 0 0 0
2379 1190 1 27.711667 3.691453 7.621886 0 0 0
2380 1190 1 28.538333 3.808547 7.128114 0 0 0
2381 1191 1 27.801556 3.596701 7.297726 0 0 0
2382 1191 1 28.448444 3.903299 7.952274 0 0 0
2383 1192 1 28.008438 3.283920 7.808613 0 0 0
2384 1192 1 28.241562 4.216080 7.941387 0 0 0
2385 1193 1 27.990534 4.189948 7.971410 0 0 0
2386 1193 1 28.259466 3.310052 8.278590 0 0 0
2387 1194 1 28.038635 3.608337 8.830739 0 0 0
2388 1194 1 28.211365 3.891663 7.919261 0 0 0
2389 1195 1 28.294175 4.172152 8.793502 0 0 0
2390 1195 1 27.955825 3.327848 8.456498 0 0 0
2391 1196 1 27.703436 3.838342 9.097945 0 0 0
2392 1196 1 28.546564 3.661658 8.652055 0 0 0
2393 1197 1 27.730120 3.470011 9.094985 0 0 0
2394 1197 1 28.519880 4.029989 9.155015 0 0 0
2395 1198 1 27.974581 3.351716 9.142687 0 0 0
2396 1198 1 28.275419 4.148284 9.607313 0 0 0
2397 1199 1 27.842077 3.361599 9.690763 0 0 0
2398 1199 1 28.407923 4.138401 9.559237 0 0 0
2399 1200 1 28.375242 3.378220 9.689572 0 0 0
2400 1200 1 27.874758 4.121780 10.060428 0 0 0
2401 1201 1 28.367121 5.973869 0.441787 0 0 0
2402 1201 1 27.882879 6.526131 -0.191787 0 0 0
2403 1202 1 27.979248 5.841772 0.157443 0 0 0
2404 1202 1 28.270752 6.658228 0.592557 0 0 0
2405 1203 1 28.131421 6.733796 0.591457 0 0 0
2406 1203 1 28.118579 5.766204 0.658543 0 0 0
2407 1204 1 27.817500 6.596926 1.017518 0 0 0
2408 1204 1 28.432500 5.903074 0.732482 0 0 0
2409 1205 1 28.479994 5.965926 1.293837 0 0 0
2410 1205 1 27.770006 6.534074 0.956163 0 0 0
2411 1206 1 28.409087 5.954437 1.634157 0 0 0
2412 1206 1 27.840913 6.545563 1.115843 0 0 0
2413 1207 1 27.807089 6.118829 1.283018 0 0 0
2414 1207 1 28.442911 6.381171 1.966982 0 0 0
2415 1208 1 28.475038 6.546906 1.718332 0 0 0
2416 1208 1 27.774962 5.953094 2.031668 0 0 0
2417 1209 1 27.940738 6.279995 1.677370 0 0 0
2418 1209 1 28.309262 6.220005 2.572630 0 0 0
2419 1210 1 28.138495 5.785208 2.512883 0 0 0
2420 1210 1 28.111505 6.714792 2.237117 0 0 0
2421 1211 1 27.879937 6.277337 3.042638 0 0 0
2422 1211 1 28.370063 6.222663 2.207362 0 0 0
2423 1212 1 27.920417 5.847307 2.698339 0 0 0
2424 1212 1 28.329583 6.652693 3.051661 0 0 0
2425 1213 1 27.812127 6.097598 2.787200 0 0 0
2426 1213 1 28.437873 6.402402 3.462800 0 0 0
2427 1214 1 27.850225 6.451541 3.029884 0 0 0
2428 1214 1 28.399775 6.048459 3.720116 0 0 0
2429 1215 1 27.995044 5.999699 3.230429 0 0 0
2430 1215 1 28.254956 6.500301 4.019571 0 0 0
2431 1216 1 28.217164 6.194125 3.402127 0 0 0
2432 1216 1 28.032836 6.305875 4.347873 0 0 0
2433 1217 1 28.220208 6.176795 3.655105 0 0 0
2434 1217 1 28.029792 6.323205 4.594895 0 0 0
2435 1218 1 28.003155 6.416983 3.936257 0 0 0
2436 1218 1 28.246845 6.083017 4.813743 0 0 0
2437 1219 1 28.007257 5.800211 4.486974 0 0 0
2438 1219 1 28.242743 6.699789 4.763026 0 0 0
2439 1220 1 28.553723 6.192689 5.094401 0 0 0
2440 1220 1 27.696277 6.307311 4.655599 0 0 0
2441 1221 1 28.332558 5.967629 4.789722 0 0 0
2442 1221 1 27.917442 6.532371 5.460278 0 0 0
2443 1222 1 28.528502 6.169931 5.118095 0 0 0
2444 1222 1 27.721498 6.330069 5.631905 0 0 0
2445 1223 1 28.459058 6.068222 5.324023 0 0 0
2446 1223 1 27.790942 6.431778 5.925977 0 0 0
2447 1224 1 27.859734 6.410635 5.502099 0 0 0
2448 1224 1 28.390266 6.089365 6.247901 0 0 0
2449 1225 1 28.282263 5.793264 6.168423 0 0 0
2450 1225 1 27.967737 6.706736 6.081577 0 0 0
2451 1226 1 28.466066 6.307139 6.715050 0 0 0
2452 1226 1 27.783934 6.192861 6.034950 0 0 0
2453 1227 1 27.938528 6.159336 6.186556 0 0 0
2454 1227 1 28.311472 6.340664 7.063444 0 0 0
2455 1228 1 28.246874 6.110577 6.426745 0 0 0
2456 1228 1 28.003126 6.389423 7.323255 0 0 0
2457 1229 1 27.836139 6.543644 6.868958 0 0 0
2458 1229 1 28.413861 5.956356 7.381042 0 0 0
2459 1230 1 28.209158 6.116816 7.833698 0 0 0
2460 1230 1 28.040842 6.383184 6.916302 0 0 0
2461 1231 1 27.887230 6.312554 7.206936 0 0 0
2462 1231 1 28.362770 6.187446 8.043064 0 0 0
2463 1232 1 28.298862 6.495824 8.255220 0 0 0
2464 1232 1 27.951138 6.004176 7.494780 0 0 0
2465 1233 1 27.955568 6.703114 8.090274 0 0 0
2466 1233 1 28.294432 5.796886 8.159726 0 0 0
2467 1234 1 28.356556 5.889419 8.602130 0 0 0
2468 1234 1 27.893444 6.610581 8.147870 0 0 0
2469 1235 1 28.456747 6.038872 8.908891 0 0 0
2470 1235 1 27.793253 6.461128 8.341109 0 0 0
2471 1236 1 28.420987 6.447261 9.204704 0 0 0
2472 1236 1 27.829013 6.052739 8.545296 0 0 0
2473 1237 1 28.533545 6.010518 9.020290 0 0 0
2474 1237 1 27.716455 6.489482 9.229710 0 0 0
2475 1238 1 27.872589 6.627628 9.204967 0 0 0
2476 1238 1 28.377411 5.872372 9.545033 0 0 0
2477 1239 1 28.200186 6.579938 9.972438 0 0 0
2478 1239 1 28.049814 5.920062 9.277562 0 0 0
2479 1240 1 28.425718 5.896048 10.014686 0 0 0
2480 1240 1 27.824282 6.603952 9.735314 0 0 0
2481 1241 1 28.182587 8.735947 0.606364 0 0 0
2482 1241 1 28.067413 8.764053 -0.356364 0 0 0
2483 1242 1 28.148312 8.708194 0.857632 0 0 0
2484 1242 1 28.101688 8.791806 -0.107632 0 0 0
2485 1243 1 28.139841 8.351315 0.349219 0 0 0
2486 1243 1 28.110159 9.148685 0.900781 0 0 0
2487 1244 1 28.256261 8.865221 1.327460 0 0 0
2488 1244 1 27.993739 8.634779 0.422540 0 0 0
2489 1245 1 28.603409 8.709857 1.056167 0 0 0
2490 1245 1 27.646591 8.790143 1.193833 0 0 0
2491 1246 1 28.134780 8.514225 1.798721 0 0 0
2492 1246 1 28.115220 8.985775 0.951279 0 0 0
2493 1247 1 28.443499 8.773171 1.990029 0 0 0
2494 1247 1 27.806501 8.726829 1.259971 0 0 0
2495 1248 1 28.591805 8.618561 1.868552 0 0 0
2496 1248 1 27.658195 8.881439 1.881448 0 0 0
2497 1249 1 27.981995 9.145998 1.884251 0 0 0
2498 1249 1 28.268005 8.354002 2.365749 0 0 0
2499 1250 1 28.175423 8.291554 2.525033 0 0 0
2500 1250 1 28.074577 9.208446 2.224967 0 0 0
2501 1251 1 28.401727 9.044621 2.893041 0 0 0
2502 1251 1 27.848273 8.455379 2.356959 0 0 0
2503 1252 1 27.748991 8.447079 2.920620 0 0 0
2504 1252 1 28.501009 9.052921 2.829380 0 0 0
2505 1253 1 27.989757 9.158150 3.349383 0 0 0
2506 1253 1 28.260243 8.341850 2.900617 0 0 0
2507 1254 1 28.179853 9.212415 3.239396 0 0 0
2508 1254 1 28.070147 8.287585 3.510604 0 0 0
2509 1255 1 27.959142 9.095139 3.327350 0 0 0
2510 1255 1 28.290858 8.404861 3.922650 0 0 0
2511 1256 1 28.092624 8.978682 3.448524 0 0 0
2512 1256 1 28.157376 8.521318 4.301476 0 0 0
2513 1257 1 27.996771 8.334976 3.909274 0 0 0
2514 1257 1 28.253229 9.165024 4.340726 0 0 0
2515 1258 1 27.952052 8.366610 4.616508 0 0 0
2516 1258 1 28.297948 9.133390 4.133492 0 0 0
2517 1259 1 27.659075 8.646342 4.710989 0 0 0
2518 1259 1 28.590925 8.853658 4.539011 0 0 0
2519 1260 1 28.077647 8.286996 5.011418 0 0 0
2520 1260 1 28.172353 9.213004 4.738582 0 0 0
2521 1261 1 28.198064 8.459790 5.506661 0 0 0
2522 1261 1 28.051936 9.040210 4.743339 0 0 0
2523 1262 1 27.735755 8.719812 5.087247 0 0 0
2524 1262 1 28.514245 8.780188 5.662753 0 0 0
2525 1263 1 28.426096 8.706272 6.002696 0 0 0
2526 1263 1 27.823904 8.793728 5.247304 0 0 0
2527 1264 1 28.412764 8.389485 6.024819 0 0 0
2528 1264 1 27.837236 9.110515 5.725181 0 0 0
2529 1265 1 28.211196 8.273378 6.150034 0 0 0
2530 1265 1 28.038804 9.226622 6.099966 0 0 0
2531 1266 1 28.429580 8.700633 6.749191 0 0 0
2532 1266 1 27.820420 8.799367 6.000809 0 0 0

Bonds

1 1 1 2
2 1 3 4
3 1 5 6
4 1 7 8
5 1 9 10
6 1 11 12
7 1 13 14
8 1 15 16
9 1 17 18
10 1 19 20
11 1 21 22
12 1 23 24
13 1 25 26
14 1 27 28
15 1 29 30
16 1 31 32
17 1 33 34
18 1 35 36
19 1 37 38
20 1 39 40
21 1 41 42
22 1 43 44
23 1 45 46
24 1 47 48
25 1 49 50
26 1 51 52
27 1 53 54
28 1 55 56
29 1 57 58
30 1 59 60
31 1 61 62
32 1 63 64
33 1 65 66
34 1 67 68
35 1 69 70
36 1 71 72
37 1 73 74
38 1 75 76
39 1 77 78
40 1 79 80
41 1 81 82
42 1 83 84
43 1 85 86
44 1 87 88
45 1 89 90
46 1 91 92
47 1 93 94
48 1 95 96
49 1 97 98
50 1 99 100
51 1 101 102
52 1 103 104
53 1 105 106
54 1 107 108
55 1 109 110
56 1 111 112
57 1 113 114
58 1 115 116
59 1 117 118
60 1 119 120
61 1 121 122
62 1 123 124
63 1 125 126
64 1 127 128
65 1 129 130
66 1 131 132
67 1 133 134
68 1 135 136
69 1 137 138
70 1 139 140
71 1 141 142
72 1 143 144
73 1 145 146
74 1 147 148
75 1 149 150
76 1 151 152
77 1 153 154
78 1 155 156
79 1 157 158
80 1 159 160
81 1 161 162
82 1 163 164
83 1 165 166
84 1 167 168
85 1 169 170
86 1 171 172
87 1 173 174
88 1 175 176
89 1 177 178
90 1 179 180
91 1 181 182
92 1 183 184
93 1 185 186
94 1 187 188
95 1 189 190
96 1 191 192
97 1 193 194
98 1 195 196
99 1 197 198
100 1 199 200
101 1 201 202
102 1 203 204
103 1 205 206
104 1 207 208
105 1 209 210
106 1 211 212
107 1 213 214
108 1 215 216
109 1 217 218
110 1 219 220
111 1 221 222
112 1 223 224
113 1 225 226
114 1 227 228
115 1 229 230
116 1 231 232
117 1 233 234
118 1 235 236
119 1 237 238
120 1 239 240
121 1 241 242
122 1 243 244
123 1 245 246
124 1 247 248
125 1 249 250
126 1 251 252
127 1 253 254
128 1 255 256
129 1 257 258
130 1 259 260
131 1 261 262
132 1 263 264
133 1 265 266
134 1 267 268
135 1 269 270
136 1 271 272
137 1 273 274
138 1 275 276
139 1 277 278
140 1 279 280
141 1 281 282
142 1 283 284
143 1 285 286
144 1 287 288
145 1 289 290
146 1 291 292
147 1 293 294
148 1 295 296
149 1 297 298
150 1 299 300
151 1 301 302
152 1 303 304
153 1 305 306
154 1 307 308
155 1 309 310
156 1 311 312
157 1 313 314
158 1 315 316
159 1 317 318
160 1 319 320
161 1 321 322
162 1 323 324
163 1 325 326
164 1 327 328
165 1 329 330
166 1 331 332
167 1 333 334
168 1 335 336
169 1 337 338
170 1 339 340
171 1 341 342
172 1 343 344
173 1 345 346
174 1 347 348
175 1 349 350
176 1 351 352
177 1 353 354
178 1 355 356
179 1 357 358
180 1 359 360
181 1 361 362
182 1 363 364
183 1 365 366
184 1 367 368
185 1 369 370
186 1 371 372
187 1 373 374
188 1 375 376
189 1 377 378
190 1 379 380
191 1 381 382
192 1 383 384
193 1 385 386
194 1 387 388
195 1 389 390
196 1 391 392
197 1 393 394
198 1 395 396
199 1 397 398
200 1 399 400
201 1 401 402
202 1 403 404
203 1 405 406
204 1 407 408
205 1 409 410
206 1 411 412
207 1 413 414
208 1 415 416
209 1 417 418
210 1 419 420
211 1 421 422
212 1 423 424
213 1 425 426
214 1 427 428
215 1 429 430
216 1 431 432
217 1 433 434
218 1 435 436
219 1 437 438
220 1 439 440
221 1 441 442
222 1 443 444
223 1 445 446
224 1 447 448
225 1 449 450
226 1 451 452
227 1 453 454
228 1 455 456
229 1 457 458
230 1 459 460
231 1 461 462
232 1 463 464
233 1 465 466
234 1 467 468
235 1 469 470
236 1 471 472
237 1 473 474
238 1 475 476
239 1 477 478
240 1 479 480
241 1 481 482
242 1 483 484
243 1 485 486
244 1 487 488
245 1 489 490
246 1 491 492
247 1 493 494
248 1 495 496
249 1 497 498
250 1 499 500
251 1 501 502
252 1 503 504
253 1 505 506
254 1 507 508
255 1 509 510
256 1 511 512
257 1 513 514
258 1 515 516
259 1 517 518
260 1 519 520
261 1 521 522
262 1 523 524
263 1 525 526
264 1 527 528
265 1 529 530
266 1 531 532
267 1 533 534
268 1 535 536
269 1 537 538
270 1 539 540
271 1 541 542
272 1 543 544
273 1 545 546
274 1 547 548
275 1 549 550
276 1 551 552
277 1 553 554
278 1 555 556
279 1 557 558
280 1 559 560
281 1 561 562
282 1 563 564
283 1 565 566
284 1 567 568
285 1 569 570
286 1 571 572
287 1 573 574
288 1 575 576
289 1 577 578
290 1 579 580
291 1 581 582
292 1 583 584
293 1 585 586
294 1 587 588
295 1 589 590
296 1 591 592
297 1 593 594
298 1 595 596
299 1 597 598
300 1 599 600
301 1 601 602
302 1 603 604
303 1 605 606
304 1 607 608
305 1 609 610
306 1 611 612
307 1 613 614
308 1 615 616
309 1 617 618
310 1 619 620
311 1 621 622
312 1 623 624
313 1 625 626
314 1 627 628
315 1 629 630
316 1 631 632
317 1 633 634
318 1 635 636
319 1 637 638
320 1 639 640
321 1 641 642
322 1 643 644
323 1 645 646
324 1 647 648
325 1 649 650
326 1 651 652
327 1 653 654
328 1 655 656
329 1 657 658
330 1 659 660
331 1 661 662
332 1 663 664
333 1 665 666
334 1 667 668
335 1 669 670
336 1 671 672
337 1 673 674
338 1 675 676
339 1 677 678
340 1 679 680
341 1 681 682
342 1 683 684
343 1 685 686
344 1 687 688
345 1 689 690
346 1 691 692
347 1 693 694
348 1 695 696
349 1 697 698
350 1 699 700
351 1 701 702
352 1 703 704
353 1 705 706
354 1 707 708
355 1 709 710
356 1 711 712
357 1 713 714
358 1 715 716
359 1 717 718
360 1 719 720
361 1 721 722
362 1 723 724
363 1 725 726
364 1 727 728
365 1 729 730
366 1 731 732
367 1 733 734
368 1 735 736
369 1 737 738
370 1 739 740
371 1 741 742
372 1 743 744
373 1 745 746
374 1 747 748
375 1 749 750
376 1 751 752
377 1 753 754
378 1 755 756
379 1 757 758
380 1 759 760
381 1 761 762
382 1 763 764
383 1 765 766
384 1 767 768
385 1 769 770
386 1 771 772
387 1 773 774
388 1 775 776
389 1 777 778
390 1 779 780
391 1 781 782
392 1 783 784
393 1 785 786
394 1 787 788
395 1 789 790
396 1 791 792
397 1 793 794
398 1 795 796
399 1 797 798
400 1 799 800
401 1 801 802
402 1 803 804
403 1 805 806
404 1 807 808
405 1 809 810
406 1 811 812
407 1 813 814
408 1 815 816
409 1 817 818
410 1 819 820
411 1 821 822
412 1 823 824
413 1 825 826
414 1 827 828
415 1 829 830
416 1 831 832
417 1 833 834
418 1 835 836
419 1 837 838
420 1 839 840
421 1 841 842
422 1 843 844
423 1 845 846
424 1 847 848
425 1 849 850
426 1 851 852
427 1 853 854
428 1 855 856
429 1 857 858
430 1 859 860
431 1 861 862
432 1 863 864
433 1 865 866
434 1 867 868
435 1 869 870
436 1 871 872
437 1 873 874
438 1 875 876
439 1 877 878
440 1 879 880
441 1 881 882
442 1 883 884
443 1 885 886
444 1 887 888
445 1 889 890
446 1 891 892
447 1 893 894
448 1 895 896
449 1 897 898
450 1 899 900
451 1 901 902
452 1 903 904
453 1 905 906
454 1 907 908
455 1 909 910
456 1 911 912
457 1 913 914
458 1 915 916
459 1 917 918
460 1 919 920
461 1 921 922
462 1 923 924
463 1 925 926
464 1 927 928
465 1 929 930
466 1 931 932
467 1 933 934
468 1 935 936
469 1 937 938
470 1 939 940
471 1 941 942
472 1 943 944
473 1 945 946
474 1 947 948
475 1 949 950
476 1 951 952
477 1 953 954
478 1 955 956
479 1 957 958
480 1 959 960
481 1 961 962
482 1 963 964
483 1 965 966
484 1 967 968
485 1 969 970
486 1 971 972
487 1 973 974
488 1 975 976
489 1 977 978
490 1 979 980
491 1 981 982
492 1 983 984
493 1 985 986
494 1 987 988
495 1 989 990
496 1 991 992
497 1 993 994
498 1 995 996
499 1 997 998
500 1 999 1000
501 1 1001 1002
502 1 1003 1004
503 1 1005 1006
504 1 1007 1008
505 1 1009 1010
506 1 1011 1012
507 1 1013 1014
508 1 1015 1016
509 1 1017 1018
510 1 1019 1020
511 1 1021 1022
512 1 1023 1024
513 1 1025 1026
514 1 1027 1028
515 1 1029 1030
516 1 1031 1032
517 1 1033 1034
518 1 1035 1036
519 1 1037 1038
520 1 1039 1040
521 1 1041 1042
522 1 1043 1044
523 1 1045 1046
524 1 1047 1048
525 1 1049 1050
526 1 1051 1052
527 1 1053 1054
528 1 1055 1056
529 1 1057 1058
530 1 1059 1060
531 1 1061 1062
532 1 1063 1064
533 1 1065 1066
534 1 1067 1068
535 1 1069 1070
536 1 1071 1072
537 1 1073 1074
538 1 1075 1076
539 1 1077 1078
540 1 1079 1080
541 1 1081 1082
542 1 1083 1084
543 1 1085 1086
544 1 1087 1088
545 1 1089 1090
546 1 1091 1092
547 1 1093 1094
548 1 1095 1096
549 1 1097 1098
550 1 1099 1100
551 1 1101 1102
552 1 1103 1104
553 1 1105 1106
554 1 1107 1108
555 1 1109 1110
556 1 1111 1112
557 1 1113 1114
558 1 1115 1116
559 1 1117 1118
560 1 1119 1120
561 1 1121 1122
562 1 1123 1124
563 1 1125 1126
564 1 1127 1128
565 1 1129 1130
566 1 1131 1132
567 1 1133 1134
568 1 1135 1136
569 1 1137 1138
570 1 1139 1140
571 1 1141 1142
572 1 1143 1144
573 1 1145 1146
574 1 1147 1148
575 1 1149 1150
576 1 1151 1152
577 1 1153 1154
578 1 1155 1156
579 1 1157 1158
580 1 1159 1160
581 1 1161 1162
582 1 1163 1164
583 1 1165 1166
584 1 1167 1168
585 1 1169 1170
586 1 1171 1172
587 1 1173 1174
588 1 1175 1176
589 1 1177 1178
590 1 1179 1180
591 1 1181 1182
592 1 1183 1184
593 1 1185 1186
594 1 1187 1188
595 1 1189 1190
596 1 1191 1192
597 1 1193 1194
598 1 1195 1196
599 1 1197 1198
600 1 1199 1200
601 1 1201 1202
602 1 1203 1204
603 1 1205 1206
604 1 1207 1208
605 1 1209 1210
606 1 1211 1212
607 1 1213 1214
608 1 1215 1216
609 1 1217 1218
610 1 1219 1220
611 1 1221 1222
612 1 1223 1224
613 1 1225 1226
614 1 1227 1228
615 1 1229 1230
616 1 1231 1232
617 1 1233 1234
618 1 1235 1236
619 1 1237 1238
620 1 1239 1240
621 1 1241 1242
622 1 1243 1244
623 1 1245 1246
624 1 1247 1248
625 1 1249 1250
626 1 1251 1252
627 1 1253 1254
628 1 1255 1256
629 1 1257 1258
630 1 1259 1260
631 1 1261 1262
632 1 1263 1264
633 1 1265 1266
634 1 1267 1268
635 1 1269 1270
636 1 1271 1272
637 1 1273 1274
638 1 1275 1276
639 1 1277 1278
640 1 1279 1280
641 1 1281 1282
642 1 1283 1284
643 1 1285 1286
644 1 1287 1288
645 1 1289 1290
646 1 1291 1292
647 1 1293 1294
648 1 1295 1296
649 1 1297 1298
650 1 1299 1300
651 1 1301 1302
652 1 1303 1304
653 1 1305 1306
654 1 1307 1308
655 1 1309 1310
656 1 1311 1312
657 1 1313 1314
658 1 1315 1316
659 1 1317 1318
660 1 1319 1320
661 1 1321 1322
662 1 1323 1324
663 1 1325 1326
664 1 1327 1328
665 1 1329 1330
666 1 1331 1332
667 1 1333 1334
668 1 1335 1336
669 1 1337 1338
670 1 1339 1340
671 1 1341 1342
672 1 1343 1344
673 1 1345 1346
674 1 1347 1348
675 1 1349 1350
676 1 1351 1352
677 1 1353 1354
678 1 1355 1356
679 1 1357 1358
680 1 1359 1360
681 1 1361 1362
682 1 1363 1364
683 1 1365 1366
684 1 1367 1368
685 1 1369 1370
686 1 1371 1372
687 1 1373 1374
688 1 1375 1376
689 1 1377 1378
690 1 1379 1380
691 1 1381 1382
692 1 1383 1384
693 1 1385 1386
694 1 1387 1388
695 1 1389 1390
696 1 1391 1392
697 1 1393 1394
698 1 1395 1396
699 1 1397 1398
700 1 1399 1400
701 1 1401 1402
702 1 1403 1404
703 1 1405 1406
704 1 1407 1408
705 1 1409 1410
706 1 1411 1412
707 1 1413 1414
708 1 1415 1416
709 1 1417 1418
710 1 1419 1420
711 1 1421 1422
712 1 1423 1424
713 1 1425 1426
714 1 1427 1428
715 1 1429 1430
716 1 1431 1432
717 1 1433 1434
718 1 1435 1436
719 1 1437 1438
720 1 1439 1440
721 1 1441 1442
722 1 1443 1444
723 1 1445 1446
724 1 1447 1448
725 1 1449 1450
726 1 1451 1452
727 1 1453 1454
728 1 1455 1456
729 1 1457 1458
730 1 1459 1460
731 1 1461 1462
732 1 1463 1464
733 1 1465 1466
734 1 1467 1468
735 1 1469 1470
736 1 1471 1472
737 1 1473 1474
738 1 1475 1476
739 1 1477 1478
740 1 1479 1480
741 1 1481 1482
742 1 1483 1484
743 1 1485 1486
744 1 1487 1488
745 1 1489 1490
746 1 1491 1492
747 1 1493 1494
748 1 1495 1496
749 1 1497 1498
750 1 1499 1500
751 1 1501 1502
752 1 1503 1504
753 1 1505 1506
754 1 1507 1508
755 1 1509 1510
756 1 1511 1512
757 1 1513 1514
758 1 1515 1516
759 1 1517 1518
760 1 1519 1520
761 1 1521 1522
762 1 1523 1524
763 1 1525 1526
764 1 1527 1528
765 1 1529 1530
766 1 1531 1532
767 1 1533 1534
768 1 1535 1536
769 1 1537 1538
770 1 1539 1540
771 1 1541 1542
772 1 1543 1544
773 1 1545 1546
774 1 1547 1548
775 1 1549 1550
776 1 1551 1552
777 1 1553 1554
778 1 1555 1556
779 1 1557 1558
780 1 1559 1560
781 1 1561 1562
782 1 1563 1564
783 1 1565 1566
784 1 1567 1568
785 1 1569 1570
786 1 1571 1572
787 1 1573 1574
788 1 1575 1576
789 1 1577 1578
790 1 1579 1580
791 1 1581 1582
792 1 1583 1584
793 1 1585 1586
794 1 1587 1588
795 1 1589 1590
796 1 1591 1592
797 1 1593 1594
798 1 1595 1596
799 1 1597 1598
800 1 1599 1600
801 1 1601 1602
802 1 1603 1604
803 1 1605 1606
804 1 1607 1608
805 1 1609 1610
806 1 1611 1612
807 1 1613 1614
808 1 1615 1616
809 1 1617 1618
810 1 1619 1620
811 1 1621 1622
812 1 1623 1624
813 1 1625 1626
814 1 1627 1628
815 1 1629 1630
816 1 1631 1632
817 1 1633 1634
818 1 1635 1636
819 1 1637 1638
820 1 1639 1640
821 1 1641 1642
822 1 1643 1644
823 1 1645 1646
824 1 1647 1648
825 1 1649 1650
826 1 1651 1652
827 1 1653 1654
828 1 1655 1656
829 1 1657 1658
830 1 1659 1660
831 1 1661 1662
832 1 1663 1664
833 1 1665 1666
834 1 1667 1668
835 1 1669 1670
836 1 1671 1672
837 1 1673 1674
838 1 1675 1676
839 1 1677 1678
840 1 1679 1680
841 1 1681 1682
842 1 1683 1684
843 1 1685 1686
844 1 1687 1688
845 1 1689 1690
846 1 1691 1692
847 1 1693 1694
848 1 1695 1696
849 1 1697 1698
850 1 1699 1700
851 1 1701 1702
852 1 1703 1704
853 1 1705 1706
854 1 1707 1708
855 1 1709 1710
856 1 1711 1712
857 1 1713 1714
858 1 1715 1716
859 1 1717 1718
860 1 1719 1720
861 1 1721 1722
862 1 1723 1724
863 1 1725 1726
864 1 1727 1728
865 1 1729 1730
866 1 1731 1732
867 1 1733 1734
868 1 1735 1736
869 1 1737 1738
870 1 1739 1740
871 1 1741 1742
872 1 1743 1744
873 1 1745 1746
874 1 1747 1748
875 1 1749 1750
876 1 1751 1752
877 1 1753 1754
878 1 1755 1756
879 1 1757 1758
880 1 1759 1760
881 1 1761 1762
882 1 1763 1764
883 1 1765 1766
884 1 1767 1768
885 1 1769 1770
886 1 1771 1772
887 1 1773 1774
888 1 1775 1776
889 1 1777 1778
890 1 1779 1780
891 1 1781 1782
892 1 1783 1784
893 1 1785 1786
894 1 1787 1788
895 1 1789 1790
896 1 1791 1792
897 1 1793 1794
898 1 1795 1796
899 1 1797 1798
900 1 1799 1800
901 1 1801 1802
902 1 1803 1804
903 1 1805 1806
904 1 1807 1808
905 1 1809 1810
906 1 1811 1812
907 1 1813 1814
908 1 1815 1816
909 1 1817 1818
910 1 1819 1820
911 1 1821 1822
912 1 1823 1824
913 1 1825 1826
914 1 1827 1828
915 1 1829 1830
916 1 1831 1832
917 1 1833 1834
918 1 1835 1836
919 1 1837 1838
920 1 1839 1840
921 1 1841 1842
922 1 1843 1844
923 1 1845 1846
924 1 1847 1848
925 1 1849 1850
926 1 1851 1852
927 1 1853 1854
928 1 1855 1856
929 1 1857 1858
930 1 1859 1860
931 1 1861 1862
932 1 1863 1864
933 1 1865 1866
934 1 1867 1868
935 1 1869 1870
936 1 1871 1872
937 1 1873 1874
938 1 1875 1876
939 1 1877 1878
940 1 1879 1880
941 1 1881 1882
942 1 1883 1884
943 1 1885 1886
944 1 1887 1888
945 1 1889 1890
946 1 1891 1892
947 1 1893 1894
948 1 1895 1896
949 1 1897 1898
950 1 1899 1900
951 1 1901 1902
952 1 1903 1904
953 1 1905 1906
954 1 1907 1908
955 1 1909 1910
956 1 1911 1912
957 1 1913 1914
958 1 1915 1916
959 1 1917 1918
960 1 1919 1920
961 1 1921 1922
962 1 1923 1924
963 1 1925 1926
964 1 1927 1928
965 1 1929 1930
966 1 1931 1932
967 1 1933 1934
968 1 1935 1936
969 1 1937 1938
970 1 1939 1940
971 1 1941 1942
972 1 1943 1944
973 1 1945 1946
974 1 1947 1948
975 1 1949 1950
976 1 1951 1952
977 1 1953 1954
978 1 1955 1956
979 1 1957 1958
980 1 1959 1960
981 1 1961 1962
982 1 1963 1964
983 1 1965 1966
984 1 1967 1968
985 1 1969 1970
986 1 1971 1972
987 1 1973 1974
988 1 1975 1976
989 1 1977 1978
990 1 1979 1980
991 1 1981 1982
992 1 1983 1984
993 1 1985 1986
994 1 1987 1988
995 1 1989 1990
996 1 1991 1992
997 1 1993 1994
998 1 1995 1996
999 1 1997 1998
1000 1 1999 2000
1001 1 2001 2002
1002 1 2003 2004
1003 1 2005 2006
1004 1 2007 2008
1005 1 2009 2010
1006 1 2011 2012
1007 1 2013 2014
1008 1 2015 2016
1009 1 2017 2018
1010 1 2019 2020
1011 1 2021 2022
1012 1 2023 2024
1013 1 2025 2026
1014 1 2027 2028
1015 1 2029 2030
1016 1 2031 2032
1017 1 2033 2034
1018 1 2035 2036
1019 1 2037 2038
1020 1 2039 2040
1021 1 2041 2042
1022 1 2043 2044
1023 1 2045 2046
1024 1 2047 2048
1025 1 2049 2050
1026 1 2051 2052
1027 1 2053 2054
1028 1 2055 2056
1029 1 2057 2058
1030 1 2059 2060
1031 1 2061 2062
1032 1 2063 2064
1033 1 2065 2066
1034 1 2067 2068
1035 1 2069 2070
1036 1 2071 2072
1037 1 2073 2074
1038 1 2075 2076
1039 1 2077 2078
1040 1 2079 2080
1041 1 2081 2082
1042 1 2083 2084
1043 1 2085 2086
1044 1 2087 2088
1045 1 2089 2090
1046 1 2091 2092
1047 1 2093 2094
1048 1 2095 2096
1049 1 2097 2098
1050 1 2099 2100
1051 1 2101 2102
1052 1 2103 2104
1053 1 2105 2106
1054 1 2107 2108
1055 1 2109 2110
1056 1 2111 2112
1057 1 2113 2114
1058 1 2115 2116
1059 1 2117 2118
1060 1 2119 2120
1061 1 2121 2122
1062 1 2123 2124
1063 1 2125 2126
1064 1 2127 2128
1065 1 2129 2130
1066 1 2131 2132
1067 1 2133 2134
1068 1 2135 2136
1069 1 2137 2138
1070 1 2139 2140
1071 1 2141 2142
1072 1 2143 2144
1073 1 2145 2146
1074 1 2147 2148
1075 1 2149 2150
1076 1 2151 2152
1077 1 2153 2154
1078 1 2155 2156
1079 1 2157 2158
1080 1 2159 2160
1081 1 2161 2162
1082 1 2163 2164
1083 1 2165 2166
1084 1 2167 2168
1085 1 2169 2170
1086 1 2171 2172
1087 1 2173 2174
1088 1 2175 2176
1089 1 2177 2178
1090 1 2179 2180
1091 1 2181 2182
1092 1 2183 2184
1093 1 2185 2186
1094 1 2187 2188
1095 1 2189 2190
1096 1 2191 2192
1097 1 2193 2194
1098 1 2195 2196
1099 1 2197 2198
1100 1 2199 2200
1101 1 2201 2202
1102 1 2203 2204
1103 1 2205 2206
1104 1 2207 2208
1105 1 2209 2210
1106 1 2211 2212
1107 1 2213 2214
1108 1 2215 2216
1109 1 2217 2218
1110 1 2219 2220
1111 1 2221 2222
1112 1 2223 2224
1113 1 2225 2226
1114 1 2227 2228
1115 1 2229 2230
1116 1 2231 2232
1117 1 2233 2234
1118 1 2235 2236
1119 1 2237 2238
1120 1 2239 2240
1121 1 2241 2242
1122 1 2243 2244
1123 1 2245 2246
1124 1 2247 2248
1125 1 2249 2250
1126 1 2251 2252
1127 1 2253 2254
1128 1 2255 2256
1129 1 2257 2258
1130 1 2259 2260
1131 1 2261 2262
1132 1 2263 2264
1133 1 2265 2266
1134 1 2267 2268
1135 1 2269 2270
1136 1 2271 2272
1137 1 2273 2274
1138 1 2275 2276
1139 1 2277 2278
1140 1 2279 2280
1141 1 2281 2282
1142 1 2283 2284
1143 1 2285 2286
1144 1 2287 2288
1145 1 2289 2290
1146 1 2291 2292
1147 1 2293 2294
1148 1 2295 2296
1149 1 2297 2298
1150 1 2299 2300
1151 1 2301 2302
1152 1 2303 2304
1153 1 2305 2306
1154 1 2307 2308
1155 1 2309 2310
1156 1 2311 2312
1157 1 2313 2314
1158 1 2315 2316
1159 1 2317 2318
1160 1 2319 2320
1161 1 2321 2322
1162 1 2323 2324
1163 1 2325 2326
1164 1 2327 2328
1165 1 2329 2330
1166 1 2331 2332
1167 1 2333 2334
1168 1 2335 2336
1169 1 2337 2338
1170 1 2339 2340
1171 1 2341 2342
1172 1 2343 2344
1173 1 2345 2346
1174 1 2347 2348
1175 1 2349 2350
1176 1 2351 2352
1177 1 2353 2354
1178 1 2355 2356
1179 1 2357 2358
1180 1 2359 2360
1181 1 2361 2362
1182 1 2363 2364
1183 1 2365 2366
1184 1 2367 2368
1185 1 2369 2370
1186 1 2371 2372
1187 1 2373 2374
1188 1 2375 2376
1189 1 2377 2378
1190 1 2379 2380
1191 1 2381 2382
1192 1 2383 2384
1193 1 2385 2386
1194 1 2387 2388
1195 1 2389 2390
1196 1 2391 2392
1197 1 2393 2394
1198 1 2395 2396
1199 1 2397 2398
1200 1 2399 2400
1201 1 2401 2402
1202 1 2403 2404
1203 1 2405 2406
1204 1 2407 2408
1205 1 2409 2410
1206 1 2411 2412
1207 1 2413 2414
1208 1 2415 2416
1209 1 2417 2418
1210 1 2419 2420
1211 1 2421 2422
1212 1 2423 2424
1213 1 2425 2426
1214 1 2427 2428
1215 1 2429 2430
1216 1 2431 2432
1217 1 2433 2434
1218 1 2435 2436
1219 1 2437 2438
1220 1 2439 2440
1221 1 2441 2442
1222 1 2443 2444
1223 1 2445 2446
1224 1 2447 2448
1225 1 2449 2450
1226 1 2451 2452
1227 1 2453 2454
1228 1 2455 2456
1229 1 2457 2458
1230 1 2459 2460
1231 1 2461 2462
1232 1 2463 2464
1233 1 2465 2466
1234 1 2467 2468
1235 1 2469 2470
1236 1 2471 2472
1237 1 2473 2474
1238 1 2475 2476
1239 1 2477 2478
1240 1 2479 2480
1241 1 2481 2482
1242 1 2483 2484
1243 1 2485 2486
1244 1 2487 2488
1245 1 2489 2490
1246 1 2491 2492
1247 1 2493 2494
1248 1 2495 2496
1249 1 2497 2498
1250 1 2499 2500
1251 1 2501 2502
1252 1 2503 2504
1253 1 2505 2506
1254 1 2507 2508
1255 1 2509 2510
1256 1 2511 2512
1257 1 2513 2514
1258 1 2515 2516
1259 1 2517 2518
1260 1 2519 2520
1261 1 2521 2522
1262 1 2523 2524
1263 1 2525 2526
1264 1 2527 2528
1265 1 2529 2530
1266 1 2531 2532
