ITEM: TIMESTEP
0
ITEM: NUMBER OF ATOMS
3
ITEM: BOX BOUNDS pp pp pp
0.0000000000000000e+00 2.0000000000000000e+01
0.0000000000000000e+00 2.0000000000000000e+01
0.0000000000000000e+00 2.0000000000000000e+01
ITEM: ATOMS id type mol x y z vx vy vz
1 1 1 12 10 10 -0.618619 0.755598 0.665143
2 1 1 13 10 10 -0.752582 -1.05839 -1.31228
3 2 1 12.5 10 10 0.6856 0.151397 0.323567
ITEM: TIMESTEP
50
ITEM: NUMBER OF ATOMS
3
ITEM: BOX BOUNDS pp pp pp
0.0000000000000000e+00 2.0000000000000000e+01
0.0000000000000000e+00 2.0000000000000000e+01
0.0000000000000000e+00 2.0000000000000000e+01
ITEM: ATOMS id type mol x y z vx vy vz
1 1 1 11.8453 10.1889 10.1663 -0.618619 0.755598 0.665143
2 1 1 12.8119 9.7354 9.67193 -0.752582 -1.05839 -1.31228
3 2 1 12.3286 9.96215 9.91911 -0.6856 -0.151397 -0.323567
ITEM: TIMESTEP
100
ITEM: NUMBER OF ATOMS
3
ITEM: BOX BOUNDS pp pp pp
0.0000000000000000e+00 2.0000000000000000e+01
0.0000000000000000e+00 2.0000000000000000e+01
0.0000000000000000e+00 2.0000000000000000e+01
ITEM: ATOMS id type mol x y z vx vy vz
1 1 1 11.6907 10.3778 10.3326 -0.618619 0.755598 0.665143
2 1 1 12.6237 9.4708 9.34386 -0.752582 -1.05839 -1.31228
3 2 1 12.1572 9.9243 9.83822 -0.6856 -0.151397 -0.323567
ITEM: TIMESTEP
150
ITEM: NUMBER OF ATOMS
3
ITEM: BOX BOUNDS pp pp pp
0.0000000000000000e+00 2.0000000000000000e+01
0.0000000000000000e+00 2.0000000000000000e+01
0.0000000000000000e+00 2.0000000000000000e+01
ITEM: ATOMS id type mol x y z vx vy vz
1 1 1 11.536 10.5667 10.4989 -0.618619 0.755598 0.665143
2 1 1 12.4356 9.20621 9.01579 -0.752582 -1.05839 -1.31228
3 2 1 11.9858 9.88645 9.75733 -0.6856 -0.151397 -0.323567
ITEM: TIMESTEP
200
ITEM: NUMBER OF ATOMS
3
ITEM: BOX BOUNDS pp pp pp
0.0000000000000000e+00 2.0000000000000000e+01
0.0000000000000000e+00 2.0000000000000000e+01
0.0000000000000000e+00 2.0000000000000000e+01
ITEM: ATOMS id type mol x y z vx vy vz
1 1 1 11.3814 10.7556 10.6651 -0.618619 0.755598 0.665143
2 1 1 12.2474 8.94161 8.68772 -0.752582 -1.05839 -1.31228
3 2 1 11.8144 9.8486 9.67643 -0.6856 -0.151397 -0.323567
ITEM: TIMESTEP
250
ITEM: NUMBER OF ATOMS
3
ITEM: BOX BOUNDS pp pp pp
0.0000000000000000e+00 2.0000000000000000e+01
0.0000000000000000e+00 2.0000000000000000e+01
0.0000000000000000e+00 2.0000000000000000e+01
ITEM: ATOMS id type mol x y z vx vy vz
1 1 1 11.2267 10.9445 10.8314 -0.618619 0.755598 0.665143
2 1 1 12.0593 8.67701 8.35965 -0.752582 -1.05839 -1.31228
3 2 1 11.643 9.81075 9.59554 -0.6856 -0.151397 -0.323567
ITEM: TIMESTEP
300
ITEM: NUMBER OF ATOMS
3
ITEM: BOX BOUNDS pp pp pp
0.0000000000000000e+00 2.0000000000000000e+01
0.0000000000000000e+00 2.0000000000000000e+01
0.0000000000000000e+00 2.0000000000000000e+01
ITEM: ATOMS id type mol x y z vx vy vz
1 1 1 11.0721 11.1334 10.9977 -0.618619 0.755598 0.665143
2 1 1 11.8711 8.41241 8.03159 -0.752582 -1.05839 -1.31228
3 2 1 11.4716 9.77291 9.51465 -0.6856 -0.151397 -0.323567
ITEM: TIMESTEP
350
ITEM: NUMBER OF ATOMS
3
ITEM: BOX BOUNDS pp pp pp
0.0000000000000000e+00 2.0000000000000000e+01
0.0000000000000000e+00 2.0000000000000000e+01
0.0000000000000000e+00 2.0000000000000000e+01
ITEM: ATOMS id type mol x y z vx vy vz
1 1 1 10.9174 11.3223 11.164 -0.618619 0.755598 0.665143
2 1 1 11.683 8.14782 7.70352 -0.752582 -1.05839 -1.31228
3 2 1 11.3002 9.73506 9.43376 -0.6856 -0.151397 -0.323567
ITEM: TIMESTEP
400
ITEM: NUMBER OF ATOMS
3
ITEM: BOX BOUNDS pp pp pp
0.0000000000000000e+00 2.0000000000000000e+01
0.0000000000000000e+00 2.0000000000000000e+01
0.0000000000000000e+00 2.0000000000000000e+01
ITEM: ATOMS id type mol x y z vx vy vz
1 1 1 10.7628 11.5112 11.3303 -0.618619 0.755598 0.665143
2 1 1 11.4948 7.88322 7.37545 -0.752582 -1.05839 -1.31228
3 2 1 11.1288 9.69721 9.35287 -0.6856 -0.151397 -0.323567
ITEM: TIMESTEP
450
ITEM: NUMBER OF ATOMS
3
ITEM: BOX BOUNDS pp pp pp
0.0000000000000000e+00 2.0000000000000000e+01
0.0000000000000000e+00 2.0000000000000000e+01
0.0000000000000000e+00 2.0000000000000000e+01
ITEM: ATOMS id type mol x y z vx vy vz
1 1 1 10.6081 11.7001 11.4966 -0.618619 0.755598 0.665143
2 1 1 11.3067 7.61862 7.04738 -0.752582 -1.05839 -1.31228
3 2 1 10.9574 9.65936 9.27198 -0.6856 -0.151397 -0.323567
ITEM: TIMESTEP
500
ITEM: NUMBER OF ATOMS
3
ITEM: BOX BOUNDS pp pp pp
0.0000000000000000e+00 2.0000000000000000e+01
0.0000000000000000e+00 2.0000000000000000e+01
0.0000000000000000e+00 2.0000000000000000e+01
ITEM: ATOMS id type mol x y z vx vy vz
1 1 1 10.4535 11.889 11.6629 -0.618619 0.755598 0.665143
2 1 1 11.1185 7.35402 6.71931 -0.752582 -1.05839 -1.31228
3 2 1 10.786 9.62151 9.19108 -0.6856 -0.151397 -0.323567
ITEM: TIMESTEP
550
ITEM: NUMBER OF ATOMS
3
ITEM: BOX BOUNDS pp pp pp
0.0000000000000000e+00 2.0000000000000000e+01
0.0000000000000000e+00 2.0000000000000000e+01
0.0000000000000000e+00 2.0000000000000000e+01
ITEM: ATOMS id type mol x y z vx vy vz
1 1 1 10.2988 12.0779 11.8291 -0.618619 0.755598 0.665143
2 1 1 10.9304 7.08943 6.39124 -0.752582 -1.05839 -1.31228
3 2 1 10.6146 9.58366 9.11019 -0.6856 -0.151397 -0.323567
ITEM: TIMESTEP
600
ITEM: NUMBER OF ATOMS
3
ITEM: BOX BOUNDS pp pp pp
0.0000000000000000e+00 2.0000000000000000e+01
0.0000000000000000e+00 2.0000000000000000e+01
0.0000000000000000e+00 2.0000000000000000e+01
ITEM: ATOMS id type mol x y z vx vy vz
1 1 1 10.1441 12.2668 11.9954 -0.618619 0.755598 0.665143
2 1 1 10.7423 6.82483 6.06317 -0.752582 -1.05839 -1.31228
3 2 1 10.4432 9.54581 9.0293 -0.6856 -0.151397 -0.323567
ITEM: TIMESTEP
650
ITEM: NUMBER OF ATOMS
3
ITEM: BOX BOUNDS pp pp pp
0.0000000000000000e+00 2.0000000000000000e+01
0.0000000000000000e+00 2.0000000000000000e+01
0.0000000000000000e+00 2.0000000000000000e+01
ITEM: ATOMS id type mol x y z vx vy vz
1 1 1 9.98949 12.4557 12.1617 -0.618619 0.755598 0.665143
2 1 1 10.5541 6.56023 5.7351 -0.752582 -1.05839 -1.31228
3 2 1 10.2718 9.50796 8.94841 -0.6856 -0.151397 -0.323567
ITEM: TIMESTEP
700
ITEM: NUMBER OF ATOMS
3
ITEM: BOX BOUNDS pp pp pp
0.0000000000000000e+00 2.0000000000000000e+01
0.0000000000000000e+00 2.0000000000000000e+01
0.0000000000000000e+00 2.0000000000000000e+01
ITEM: ATOMS id type mol x y z vx vy vz
1 1 1 9.83483 12.6446 12.328 -0.618619 0.755598 0.665143
2 1 1 10.366 6.29563 5.40703 -0.752582 -1.05839 -1.31228
3 2 1 10.1004 9.47011 8.86752 -0.6856 -0.151397 -0.323567
ITEM: TIMESTEP
750
ITEM: NUMBER OF ATOMS
3
ITEM: BOX BOUNDS pp pp pp
0.0000000000000000e+00 2.0000000000000000e+01
0.0000000000000000e+00 2.0000000000000000e+01
0.0000000000000000e+00 2.0000000000000000e+01
ITEM: ATOMS id type mol x y z vx vy vz
1 1 1 9.68018 12.8335 12.4943 -0.618619 0.755598 0.665143
2 1 1 10.1778 6.03104 5.07896 -0.752582 -1.05839 -1.31228
3 2 1 9.929 9.43226 8.78663 -0.6856 -0.151397 -0.323567
ITEM: TIMESTEP
800
ITEM: NUMBER OF ATOMS
3
ITEM: BOX BOUNDS pp pp pp
0.0000000000000000e+00 2.0000000000000000e+01
0.0000000000000000e+00 2.0000000000000000e+01
0.0000000000000000e+00 2.0000000000000000e+01
ITEM: ATOMS id type mol x y z vx vy vz
1 1 1 9.52552 13.0224 12.6606 -0.618619 0.755598 0.665143
2 1 1 9.98967 5.76644 4.7509 -0.752582 -1.05839 -1.31228
3 2 1 9.7576 9.39441 8.70573 -0.6856 -0.151397 -0.323567
ITEM: TIMESTEP
850
ITEM: NUMBER OF ATOMS
3
ITEM: BOX BOUNDS pp pp pp
0.0000000000000000e+00 2.0000000000000000e+01
0.0000000000000000e+00 2.0000000000000000e+01
0.0000000000000000e+00 2.0000000000000000e+01
ITEM: ATOMS id type mol x y z vx vy vz
1 1 1 9.37087 13.2113 12.8269 -0.618619 0.755598 0.665143
2 1 1 9.80153 5.50184 4.42283 -0.752582 -1.05839 -1.31228
3 2 1 9.5862 9.35656 8.62484 -0.6856 -0.151397 -0.323567
ITEM: TIMESTEP
900
ITEM: NUMBER OF ATOMS
3
ITEM: BOX BOUNDS pp pp pp
0.0000000000000000e+00 2.0000000000000000e+01
0.0000000000000000e+00 2.0000000000000000e+01
0.0000000000000000e+00 2.0000000000000000e+01
ITEM: ATOMS id type mol x y z vx vy vz
1 1 1 9.21622 13.4002 12.9931 -0.618619 0.755598 0.665143
2 1 1 9.61338 5.23724 4.09476 -0.752582 -1.05839 -1.31228
3 2 1 9.4148 9.31872 8.54395 -0.6856 -0.151397 -0.323567
ITEM: TIMESTEP
950
ITEM: NUMBER OF ATOMS
3
ITEM: BOX BOUNDS pp pp pp
0.0000000000000000e+00 2.0000000000000000e+01
0.0000000000000000e+00 2.0000000000000000e+01
0.0000000000000000e+00 2.0000000000000000e+01
ITEM: ATOMS id type mol x y z vx vy vz
1 1 1 9.06156 13.5891 13.1594 -0.618619 0.755598 0.665143
2 1 1 9.42524 4.97264 3.76669 -0.752582 -1.05839 -1.31228
3 2 1 9.2434 9.28087 8.46306 -0.6856 -0.151397 -0.323567
ITEM: TIMESTEP
1000
ITEM: NUMBER OF ATOMS
3
ITEM: BOX BOUNDS pp pp pp
0.0000000000000000e+00 2.0000000000000000e+01
0.0000000000000000e+00 2.0000000000000000e+01
0.0000000000000000e+00 2.0000000000000000e+01
ITEM: ATOMS id type mol x y z vx vy vz
1 1 1 8.90691 13.778 13.3257 -0.618619 0.755598 0.665143
2 1 1 9.23709 4.70805 3.43862 -0.752582 -1.05839 -1.31228
3 2 1 9.072 9.24302 8.38217 -0.6856 -0.151397 -0.323567
